 vasp.5.4.4.18Apr17-6-g9f103f2a35 (build Jul 30 2020 14:31:59) complex

 executed on             LinuxIFC date 2021.02.04  07:33:17

 INCAR:
 POTCAR:    PAW_PBE Ag 02Apr2005
 POTCAR:    PAW_PBE Se 06Sep2000

 POTCAR:    PAW_PBE Ag 02Apr2005
   VRHFIN =Ag : s1 d10

   TITEL  = PAW_PBE Ag 02Apr2005
   POMASS =  107.868; ZVAL   =   11.000    mass and valenz
   ENMAX  =  249.844; ENMIN  =  187.383 eV

 POTCAR:    PAW_PBE Se 06Sep2000
   VRHFIN =Se: s2p4

   TITEL  = PAW_PBE Se 06Sep2000
   POMASS =   78.960; ZVAL   =    6.000    mass and valenz
   ENMAX  =  211.555; ENMIN  =  158.666 eV

  PAW_PBE Ag 02Apr2005                  :
  PAW_PBE Se 06Sep2000                  :

 POSCAR: # Compound: Ag96Se48. Old comment: Ag2Se
  positions in direct lattice
 exchange correlation table for  LEXCH =       14
   RHO(1)=    0.500       N(1)  =     2000
   RHO(2)=  100.500       N(2)  =     4000

 ion  position               nearest neighbor table
   1  0.430  0.172  0.332- 102 2.68 137 2.74 122 2.81  86 2.84 126 2.85  65 2.87  61 2.87  14 2.92

   2  0.930  0.172  0.332- 101 2.68 138 2.74 121 2.81  85 2.84 125 2.85  66 2.87  62 2.87  13 2.92

[...]

 144  0.750  0.750  0.667-  36 2.68  48 2.68   8 2.74  20 2.74  60 2.81  72 2.81  68 2.85  56 2.85

IMPORTANT INFORMATION: All symmetrisations will be switched off!
NOSYMM: (Re-)initialisation of all symmetry stuff for point group C_1.

 KPOINTS: # No comment

Automatic generation of k-mesh.
Space group operators:
 irot       det(A)        alpha          n_x          n_y          n_z        tau_x        tau_y        tau_z
    1     1.000000     0.000000     1.000000     0.000000     0.000000     0.000000     0.000000     0.000000

 Subroutine IBZKPT returns following result:

 Found      8 irreducible k-points:

 Following reciprocal coordinates:
            Coordinates               Weight
  0.000000  0.000000  0.000000      1.000000
  0.500000 -0.000000  0.000000      1.000000
  0.000000  0.500000  0.000000      1.000000
  0.500000  0.500000  0.000000      1.000000
  0.000000  0.000000  0.500000      1.000000
  0.500000 -0.000000  0.500000      1.000000
  0.000000  0.500000  0.500000      1.000000
  0.500000  0.500000  0.500000      1.000000

 Following cartesian coordinates:
            Coordinates               Weight
  0.000000  0.000000  0.000000      1.000000
  0.035688  0.000004  0.000000      1.000000
 -0.000004  0.036319  0.000000      1.000000
  0.035684  0.036323  0.000000      1.000000
  0.000000  0.000000  0.034364      1.000000
  0.035688  0.000004  0.034364      1.000000
 -0.000004  0.036319  0.034364      1.000000
  0.035684  0.036323  0.034364      1.000000

 SYSTEM =  unknown system
 POSCAR =  # Compound: Ag96Se48. Old comment: Ag2Se

 Startparameter for this run:
   NWRITE =      2    write-flag & timer
   PREC   = accura    normal or accurate (medium, high low for compatibility)
   ISTART =      0    job   : 0-new  1-cont  2-samecut
   ICHARG =      2    charge: 1-file 2-atom 10-const
   ISPIN  =      1    spin polarized calculation?
   LNONCOLLINEAR =      F non collinear calculations
   LSORBIT =      F    spin-orbit coupling
   INIWAV =      1    electr: 0-lowe 1-rand  2-diag
   LASPH  =      T    aspherical Exc in radial PAW
   METAGGA=      F    non-selfconsistent MetaGGA calc.

 Electronic Relaxation 1
   ENCUT  =  650.0 eV  47.77 Ry    6.91 a.u.  29.12 28.62 30.25*2*pi/ulx,y,z
   ENINI  =  650.0     initial cutoff
   ENAUG  =  446.8 eV  augmentation charge cutoff
   NELM   =    200;   NELMIN=  8; NELMDL= -5     # of ELM steps
   EDIFF  = 0.1E-07   stopping-criterion for ELM
   LREAL  =      F    real-space projection
   NLSPLINE    = F    spline interpolate recip. space projectors
   LCOMPAT=      F    compatible to vasp.4.4
   GGA_COMPAT  = T    GGA compatible to vasp.4.4-vasp.4.6
   LMAXPAW     = -100 max onsite density
   LMAXMIX     =    2 max onsite mixed and CHGCAR
   VOSKOWN=      0    Vosko Wilk Nusair interpolation
   ROPT   =    0.00000   0.00000
 Ionic relaxation
   EDIFFG = 0.1E-06   stopping-criterion for IOM
   NSW    =      0    number of steps for IOM
   NBLOCK =      1;   KBLOCK =      1    inner block; outer block
   IBRION =     -1    ionic relax: 0-MD 1-quasi-New 2-CG
   NFREE  =      0    steps in history (QN), initial steepest desc. (CG)
   ISIF   =      3    stress and relaxation
   IWAVPR =     10    prediction:  0-non 1-charg 2-wave 3-comb
   ISYM   =      0    0-nonsym 1-usesym 2-fastsym
   LCORR  =      T    Harris-Foulkes like correction to forces

   POTIM  = 0.5000    time-step for ionic-motion
   TEIN   =    0.0    initial temperature
   TEBEG  =    0.0;   TEEND  =   0.0 temperature during run
   SMASS  =  -3.00    Nose mass-parameter (am)
   estimated Nose-frequenzy (Omega)   =  0.10E-29 period in steps =****** mass=  -0.449E-26a.u.
   SCALEE = 1.0000    scale energy and forces
   NPACO  =    256;   APACO  = 16.0  distance and # of slots for P.C.
   PSTRESS=    0.0 pullay stress

  Mass of Ions in am
   POMASS = 107.87 78.96
  Ionic Valenz
   ZVAL   =  11.00  6.00
  Atomic Wigner-Seitz radii
  virtual crystal weights
   VCA    =   1.00  1.00
   NELECT =    1344.0000    total number of electrons
   NUPDOWN=      -1.0000    fix difference up-down

 DOS related values:
   EMIN   =  10.00;   EMAX   =-10.00  energy-range for DOS
   EFERMI =   0.00
   ISMEAR =     0;   SIGMA  =   0.05  broadening in eV -4-tet -1-fermi 0-gaus

 Electronic relaxation 2 (details)
   IALGO  =     38    algorithm
   LDIAG  =      T    sub-space diagonalisation (order eigenvalues)
   LSUBROT=      F    optimize rotation matrix (better conditioning)
   TURBO    =      0    0=normal 1=particle mesh
   IRESTART =      0    0=no restart 2=restart with 2 vectors
   NREBOOT  =      0    no. of reboots
   NMIN     =      0    reboot dimension
   EREF     =   0.00    reference energy to select bands
   IMIX   =      4    mixing-type and parameters
     AMIX     =   0.40;   BMIX     =  1.00
     AMIX_MAG =   1.60;   BMIX_MAG =  1.00
     AMIN     =   0.10
     WC   =   100.;   INIMIX=   1;  MIXPRE=   1;  MAXMIX= -45

 Intra band minimization:
   WEIMIN = 0.0000     energy-eigenvalue tresh-hold
   EBREAK =  0.31E-11  absolut break condition
   DEPER  =   0.30     relativ break condition

   TIME   =   0.40     timestep for ELM

  volume/ion in A,a.u.               =      19.49       131.52
  Fermi-wavevector in a.u.,A,eV,Ry     =   1.280824  2.420406 22.320485  1.640509
  Thomas-Fermi vector in A             =   2.413229

 Write flags
   LWAVE        =      F    write WAVECAR
   LDOWNSAMPLE  =      F    k-point downsampling of WAVECAR
   LCHARG       =      T    write CHGCAR
   LVTOT        =      F    write LOCPOT, total local potential
   LVHAR        =      F    write LOCPOT, Hartree potential only
   LELF         =      F    write electronic localiz. function (ELF)
   LORBIT       =      0    0 simple, 1 ext, 2 COOP (PROOUT), +10 PAW based schemes

 Dipole corrections
   LMONO  =      F    monopole corrections only (constant potential shift)
   LDIPOL =      F    correct potential (dipole corrections)
   IDIPOL =      0    1-x, 2-y, 3-z, 4-all directions
   EPSILON=  1.0000000 bulk dielectric constant

 Exchange correlation treatment:
   GGA     =    PS    GGA type
   VOSKOWN=      0    Vosko Wilk Nusair interpolation
   LHFCALC =     F    Hartree Fock is set to
   LHFONE  =     F    Hartree Fock one center treatment
   AEXX    =    0.0000 exact exchange contribution

 Linear response parameters
   LEPSILON=     F    determine dielectric tensor
   LRPA    =     F    only Hartree local field effects (RPA)
   LNABLA  =     F    use nabla operator in PAW spheres
   LVEL    =     F    velocity operator in full k-point grid
   LINTERFAST=   F  fast interpolation
   KINTER  =     0    interpolate to denser k-point grid
   CSHIFT  =0.1000    complex shift for real part using Kramers Kronig
   OMEGAMAX=  -1.0    maximum frequency
   DEG_THRESHOLD= 0.2000000E-02 threshold for treating states as degnerate
   RTIME   =   -0.100 relaxation time in fs
  (WPLASMAI=    0.000 imaginary part of plasma frequency in eV, 0.658/RTIME)
   DFIELD  = 0.0000000 0.0000000 0.0000000 field for delta impulse in time

 Orbital magnetization related:
   ORBITALMAG=     F  switch on orbital magnetization
   LCHIMAG   =     F  perturbation theory with respect to B field
   DQ        =  0.001000  dq finite difference perturbation B field
   LLRAUG    =     F  two centre corrections for induced B field

 Static calculation
 charge density and potential will be updated during run
 non-spin polarized calculation
 Variant of blocked Davidson
 Davidson routine will perform the subspace rotation
 perform sub-space diagonalisation
    after iterative eigenvector-optimisation
 modified Broyden-mixing scheme, WC =      100.0
 initial mixing is a Kerker type mixing with AMIX =  0.4000 and BMIX =      1.0000
 Hartree-type preconditioning will be used
 using additional bands          134
 reciprocal scheme for non local part
 use partial core corrections
 calculate Harris-corrections to forces
   (improved forces if not selfconsistent)
 use gradient corrections
 use of overlap-Matrix (Vanderbilt PP)
 Gauss-broadening in eV      SIGMA  =   0.05

  energy-cutoff  :      650.00
  volume of cell :     2806.44
      direct lattice vectors                 reciprocal lattice vectors
    14.010395980  0.001391380  0.000000000     0.071375569  0.000007787  0.000000000
    -0.001501960 13.766910920  0.000000000    -0.000007214  0.072637936  0.000000000
     0.000000000  0.000000000 14.550193860     0.000000000  0.000000000  0.068727607

  length of vectors
    14.010396049 13.766911002 14.550193860     0.071375570  0.072637936  0.068727607

 k-points in units of 2pi/SCALE and weight: # No comment
   0.00000000  0.00000000  0.00000000       0.125
   0.03568778  0.00000389  0.00000000       0.125
  -0.00000361  0.03631897  0.00000000       0.125
   0.03568418  0.03632286  0.00000000       0.125
   0.00000000  0.00000000  0.03436380       0.125
   0.03568778  0.00000389  0.03436380       0.125
  -0.00000361  0.03631897  0.03436380       0.125
   0.03568418  0.03632286  0.03436380       0.125

 k-points in reciprocal lattice and weights: # No comment
   0.00000000  0.00000000  0.00000000       0.125
   0.50000000 -0.00000000  0.00000000       0.125
   0.00000000  0.50000000  0.00000000       0.125
   0.50000000  0.50000000  0.00000000       0.125
   0.00000000  0.00000000  0.50000000       0.125
   0.50000000 -0.00000000  0.50000000       0.125
   0.00000000  0.50000000  0.50000000       0.125
   0.50000000  0.50000000  0.50000000       0.125

 position of ions in fractional coordinates (direct lattice)
   0.42987898  0.17167077  0.33247735
   0.92987898  0.17167077  0.33247735
   0.42987898  0.67167077  0.33247735
   0.92987898  0.67167077  0.33247735
   0.42987898  0.17167077  0.66581068
   0.92987898  0.17167077  0.66581068
   0.42987898  0.67167077  0.66581068
   0.92987898  0.67167077  0.66581068
   0.42987898  0.17167077  0.99914401
   0.92987898  0.17167077  0.99914401
   0.42987898  0.67167077  0.99914401
   0.92987898  0.67167077  0.99914401
   0.07012102  0.32832923  0.33247735
[...]
     0.000000000  0.000000000 14.550193860     0.000000000  0.000000000  0.068727607

  length of vectors
    14.010396049 13.766911002 14.550193860     0.071375570  0.072637936  0.068727607

 FORCES acting on ions
    electron-ion (+dipol)            ewald-force                    non-local-force                 convergence-correction
   0.199E+02 0.534E+01 -.300E+02   -.196E+02 -.596E+01 0.301E+02   -.275E+00 0.625E+00 -.109E+00   0.435E-04 -.459E-04 -.236E-04
   0.199E+02 0.568E+01 -.299E+02   -.196E+02 -.631E+01 0.300E+02   -.275E+00 0.625E+00 -.109E+00   0.318E-04 -.437E-04 -.256E-04
   0.199E+02 0.605E+01 -.300E+02   -.196E+02 -.668E+01 0.301E+02   -.276E+00 0.627E+00 -.109E+00   0.294E-04 -.428E-04 -.255E-04
   0.199E+02 0.571E+01 -.299E+02   -.196E+02 -.633E+01 0.300E+02   -.275E+00 0.625E+00 -.109E+00   0.364E-04 -.467E-04 -.274E-04
   0.199E+02 0.567E+01 -.297E+02   -.196E+02 -.629E+01 0.299E+02   -.275E+00 0.625E+00 -.108E+00   0.415E-04 -.476E-04 -.371E-04
   0.199E+02 0.569E+01 -.298E+02   -.196E+02 -.632E+01 0.299E+02   -.275E+00 0.625E+00 -.109E+00   0.331E-04 -.465E-04 -.384E-04
   0.199E+02 0.572E+01 -.297E+02   -.196E+02 -.635E+01 0.299E+02   -.275E+00 0.625E+00 -.108E+00   0.353E-04 -.440E-04 -.337E-04
   0.199E+02 0.570E+01 -.298E+02   -.196E+02 -.633E+01 0.299E+02   -.275E+00 0.625E+00 -.109E+00   0.385E-04 -.476E-04 -.361E-04
   0.199E+02 0.593E+01 -.298E+02   -.196E+02 -.655E+01 0.299E+02   -.275E+00 0.625E+00 -.108E+00   0.355E-04 -.449E-04 -.269E-04
   0.199E+02 0.571E+01 -.299E+02   -.196E+02 -.634E+01 0.300E+02   -.275E+00 0.625E+00 -.109E+00   0.267E-04 -.407E-04 -.269E-04
   0.199E+02 0.547E+01 -.298E+02   -.196E+02 -.609E+01 0.299E+02   -.274E+00 0.624E+00 -.108E+00   0.305E-04 -.450E-04 -.323E-04
   0.199E+02 0.568E+01 -.299E+02   -.196E+02 -.630E+01 0.300E+02   -.275E+00 0.625E+00 -.109E+00   0.366E-04 -.499E-04 -.251E-04
   -.200E+02 -.572E+01 -.299E+02   0.197E+02 0.634E+01 0.300E+02   0.275E+00 -.625E+00 -.109E+00   -.385E-04 0.476E-04 -.237E-04
   -.190E+02 -.627E+01 -.299E+02   0.187E+02 0.690E+01 0.300E+02   0.267E+00 -.623E+00 -.117E+00   -.329E-04 0.371E-04 -.242E-04
   -.199E+02 -.569E+01 -.299E+02   0.196E+02 0.631E+01 0.300E+02   0.275E+00 -.625E+00 -.109E+00   -.320E-04 0.400E-04 -.249E-04
   -.199E+02 -.566E+01 -.299E+02   0.196E+02 0.628E+01 0.300E+02   0.275E+00 -.626E+00 -.109E+00   -.321E-04 0.506E-04 -.241E-04
   -.199E+02 -.570E+01 -.298E+02   0.196E+02 0.633E+01 0.299E+02   0.275E+00 -.625E+00 -.109E+00   -.382E-04 0.500E-04 -.392E-04
   -.199E+02 -.571E+01 -.297E+02   0.196E+02 0.634E+01 0.298E+02   0.275E+00 -.625E+00 -.108E+00   -.340E-04 0.404E-04 -.369E-04
   -.199E+02 -.569E+01 -.298E+02   0.196E+02 0.632E+01 0.299E+02   0.275E+00 -.625E+00 -.109E+00   -.368E-04 0.441E-04 -.381E-04
   -.199E+02 -.569E+01 -.298E+02   0.196E+02 0.631E+01 0.299E+02   0.275E+00 -.625E+00 -.108E+00   -.357E-04 0.482E-04 -.341E-04
   -.198E+02 -.567E+01 -.299E+02   0.196E+02 0.630E+01 0.300E+02   0.275E+00 -.625E+00 -.109E+00   -.330E-04 0.485E-04 -.261E-04
   -.202E+02 -.549E+01 -.296E+02   0.199E+02 0.612E+01 0.297E+02   0.274E+00 -.624E+00 -.108E+00   -.279E-04 0.401E-04 -.287E-04
   -.199E+02 -.571E+01 -.299E+02   0.196E+02 0.633E+01 0.300E+02   0.275E+00 -.625E+00 -.109E+00   -.320E-04 0.409E-04 -.285E-04
   -.199E+02 -.574E+01 -.299E+02   0.197E+02 0.636E+01 0.300E+02   0.275E+00 -.625E+00 -.109E+00   -.329E-04 0.493E-04 -.309E-04
   -.189E+02 0.570E+01 0.307E+02   0.186E+02 -.632E+01 -.308E+02   0.265E+00 0.629E+00 0.934E-01   -.358E-04 -.504E-04 0.313E-04
   -.200E+02 0.570E+01 0.298E+02   0.197E+02 -.632E+01 -.299E+02   0.275E+00 0.625E+00 0.109E+00   -.326E-04 -.492E-04 0.328E-04
   -.199E+02 0.570E+01 0.298E+02   0.196E+02 -.632E+01 -.299E+02   0.275E+00 0.625E+00 0.109E+00   -.344E-04 -.442E-04 0.327E-04
   -.199E+02 0.570E+01 0.298E+02   0.197E+02 -.632E+01 -.299E+02   0.275E+00 0.625E+00 0.109E+00   -.383E-04 -.440E-04 0.372E-04
   -.209E+02 0.570E+01 0.307E+02   0.206E+02 -.632E+01 -.308E+02   0.283E+00 0.623E+00 0.946E-01   -.386E-04 -.464E-04 0.380E-04
   -.198E+02 0.570E+01 0.298E+02   0.196E+02 -.632E+01 -.299E+02   0.275E+00 0.626E+00 0.109E+00   -.333E-04 -.448E-04 0.321E-04
   -.199E+02 0.570E+01 0.298E+02   0.197E+02 -.632E+01 -.299E+02   0.275E+00 0.625E+00 0.109E+00   -.368E-04 -.454E-04 0.339E-04
   -.199E+02 0.570E+01 0.298E+02   0.196E+02 -.632E+01 -.299E+02   0.275E+00 0.626E+00 0.109E+00   -.399E-04 -.431E-04 0.325E-04
   -.199E+02 0.570E+01 0.300E+02   0.196E+02 -.632E+01 -.301E+02   0.275E+00 0.625E+00 0.109E+00   -.345E-04 -.439E-04 0.237E-04
   -.199E+02 0.570E+01 0.299E+02   0.196E+02 -.632E+01 -.300E+02   0.275E+00 0.625E+00 0.109E+00   -.307E-04 -.460E-04 0.248E-04
   -.199E+02 0.570E+01 0.299E+02   0.196E+02 -.632E+01 -.300E+02   0.275E+00 0.626E+00 0.109E+00   -.309E-04 -.446E-04 0.225E-04
   -.199E+02 0.570E+01 0.299E+02   0.196E+02 -.632E+01 -.300E+02   0.275E+00 0.626E+00 0.109E+00   -.332E-04 -.439E-04 0.207E-04
   0.200E+02 -.565E+01 0.298E+02   -.197E+02 0.628E+01 -.299E+02   -.275E+00 -.625E+00 0.109E+00   0.373E-04 0.495E-04 0.329E-04
   0.199E+02 -.565E+01 0.298E+02   -.196E+02 0.628E+01 -.299E+02   -.275E+00 -.626E+00 0.109E+00   0.331E-04 0.505E-04 0.354E-04
   0.201E+02 -.580E+01 0.298E+02   -.198E+02 0.643E+01 -.299E+02   -.275E+00 -.625E+00 0.108E+00   0.302E-04 0.457E-04 0.324E-04
   0.197E+02 -.580E+01 0.298E+02   -.195E+02 0.643E+01 -.299E+02   -.276E+00 -.626E+00 0.109E+00   0.384E-04 0.427E-04 0.340E-04
   0.199E+02 -.574E+01 0.298E+02   -.196E+02 0.637E+01 -.299E+02   -.275E+00 -.626E+00 0.109E+00   0.362E-04 0.433E-04 0.351E-04
   0.200E+02 -.574E+01 0.298E+02   -.197E+02 0.637E+01 -.299E+02   -.275E+00 -.626E+00 0.109E+00   0.329E-04 0.457E-04 0.312E-04
   0.197E+02 -.559E+01 0.298E+02   -.195E+02 0.622E+01 -.300E+02   -.275E+00 -.626E+00 0.108E+00   0.327E-04 0.470E-04 0.334E-04
   0.201E+02 -.559E+01 0.298E+02   -.198E+02 0.622E+01 -.300E+02   -.273E+00 -.625E+00 0.108E+00   0.400E-04 0.445E-04 0.317E-04
   0.199E+02 -.570E+01 0.299E+02   -.196E+02 0.632E+01 -.300E+02   -.275E+00 -.626E+00 0.109E+00   0.331E-04 0.422E-04 0.221E-04
   0.199E+02 -.570E+01 0.299E+02   -.196E+02 0.632E+01 -.300E+02   -.275E+00 -.626E+00 0.109E+00   0.296E-04 0.461E-04 0.229E-04
   0.199E+02 -.570E+01 0.299E+02   -.196E+02 0.632E+01 -.301E+02   -.275E+00 -.625E+00 0.110E+00   0.300E-04 0.438E-04 0.229E-04
   0.199E+02 -.570E+01 0.299E+02   -.196E+02 0.632E+01 -.301E+02   -.275E+00 -.625E+00 0.109E+00   0.334E-04 0.447E-04 0.244E-04
   0.201E+02 -.563E+01 -.301E+02   -.198E+02 0.625E+01 0.302E+02   -.274E+00 -.625E+00 -.109E+00   0.318E-04 0.447E-04 -.265E-04
   0.197E+02 -.563E+01 -.301E+02   -.195E+02 0.625E+01 0.302E+02   -.275E+00 -.626E+00 -.109E+00   0.347E-04 0.405E-04 -.244E-04
   0.199E+02 -.571E+01 -.299E+02   -.197E+02 0.633E+01 0.300E+02   -.275E+00 -.625E+00 -.109E+00   0.327E-04 0.411E-04 -.190E-04
   0.199E+02 -.571E+01 -.299E+02   -.196E+02 0.633E+01 0.300E+02   -.275E+00 -.625E+00 -.109E+00   0.378E-04 0.501E-04 -.197E-04
   0.198E+02 -.575E+01 -.298E+02   -.195E+02 0.637E+01 0.299E+02   -.275E+00 -.625E+00 -.109E+00   0.339E-04 0.477E-04 -.340E-04
   0.201E+02 -.575E+01 -.298E+02   -.198E+02 0.637E+01 0.299E+02   -.275E+00 -.625E+00 -.109E+00   0.337E-04 0.398E-04 -.353E-04
   0.199E+02 -.567E+01 -.298E+02   -.196E+02 0.630E+01 0.300E+02   -.275E+00 -.625E+00 -.109E+00   0.358E-04 0.434E-04 -.357E-04
   0.199E+02 -.567E+01 -.298E+02   -.197E+02 0.630E+01 0.300E+02   -.275E+00 -.625E+00 -.109E+00   0.375E-04 0.487E-04 -.333E-04
   0.200E+02 -.568E+01 -.298E+02   -.197E+02 0.630E+01 0.299E+02   -.275E+00 -.625E+00 -.109E+00   0.351E-04 0.490E-04 -.303E-04
   0.199E+02 -.568E+01 -.298E+02   -.196E+02 0.630E+01 0.299E+02   -.275E+00 -.625E+00 -.108E+00   0.344E-04 0.427E-04 -.301E-04
   0.199E+02 -.571E+01 -.298E+02   -.197E+02 0.633E+01 0.299E+02   -.275E+00 -.625E+00 -.109E+00   0.333E-04 0.438E-04 -.345E-04
   0.199E+02 -.571E+01 -.298E+02   -.196E+02 0.633E+01 0.299E+02   -.275E+00 -.625E+00 -.109E+00   0.304E-04 0.479E-04 -.365E-04
[...]
   0.343E-02 -.459E-02 0.315E+02   -.335E-02 0.465E-02 -.328E+02   -.774E-04 -.370E-04 0.136E+01   0.361E-06 -.148E-05 0.790E-05
   -.519E-02 -.204E-01 0.315E+02   0.529E-02 0.206E-01 -.329E+02   -.148E-03 -.325E-03 0.136E+01   -.283E-06 0.572E-06 0.777E-05
   0.939E-01 0.878E-01 0.315E+02   -.938E-01 -.879E-01 -.329E+02   -.271E-03 -.471E-03 0.136E+01   0.106E-06 0.180E-06 0.136E-04
   -.445E-01 0.253E-01 0.315E+02   0.444E-01 -.253E-01 -.328E+02   0.134E-03 0.541E-04 0.136E+01   -.899E-06 0.556E-06 0.134E-04
   0.252E-01 -.407E-01 0.315E+02   -.252E-01 0.406E-01 -.328E+02   0.404E-04 0.174E-03 0.136E+01   -.714E-06 -.574E-06 0.132E-04
   -.174E-01 -.169E-01 0.315E+02   0.173E-01 0.168E-01 -.328E+02   0.623E-04 0.230E-04 0.136E+01   0.868E-06 0.783E-08 0.142E-04
   -.142E+00 -.133E+00 0.314E+02   0.142E+00 0.133E+00 -.327E+02   0.505E-03 0.365E-03 0.136E+01   0.284E-06 -.180E-06 0.169E-04
   0.438E-01 -.243E-01 0.314E+02   -.439E-01 0.244E-01 -.328E+02   0.274E-03 -.291E-03 0.136E+01   -.153E-05 -.131E-05 0.158E-04
   -.239E-01 0.397E-01 0.314E+02   0.238E-01 -.395E-01 -.328E+02   -.164E-03 -.228E-03 0.136E+01   -.133E-05 0.398E-06 0.163E-04
   0.143E-01 0.140E-01 0.314E+02   -.142E-01 -.139E-01 -.328E+02   0.220E-04 -.267E-04 0.136E+01   0.117E-05 0.288E-06 0.155E-04
   -.103E-01 -.976E-02 0.315E+02   0.105E-01 0.978E-02 -.329E+02   -.192E-03 -.467E-04 0.136E+01   0.438E-06 0.469E-06 0.728E-05
   0.786E-02 -.472E-02 0.315E+02   -.781E-02 0.468E-02 -.329E+02   -.930E-04 -.929E-05 0.136E+01   -.121E-05 -.543E-06 0.774E-05
   -.481E-02 0.730E-02 0.315E+02   0.481E-02 -.724E-02 -.329E+02   -.332E-05 -.929E-05 0.136E+01   -.466E-06 -.129E-06 0.683E-05
   0.380E-02 0.381E-02 0.315E+02   -.398E-02 -.383E-02 -.328E+02   0.152E-03 0.419E-04 0.136E+01   0.557E-06 0.773E-06 0.695E-05
   -.212E-02 -.227E-01 -.688E-01   -.408E-12 -.593E-12 0.725E-12   0.213E-02 0.227E-01 0.688E-01   -.210E-05 -.130E-05 -.310E-05

 POSITION                                       TOTAL-FORCE (eV/Angst)
      6.02252      2.36397      4.83761        -0.000057     -0.000072      0.000241
     13.02771      2.36467      4.83761        -0.000112      0.000080      0.000007
      6.02177      9.24743      4.83761         0.000102     -0.000771      0.000243
     13.02696      9.24813      4.83761        -0.000039      0.000086      0.000007
      6.02252      2.36397      9.68767        -0.000036      0.000077     -0.000112
     13.02771      2.36467      9.68767        -0.000004      0.000060     -0.000057
      6.02177      9.24743      9.68767         0.000019      0.000055     -0.000112
     13.02696      9.24813      9.68767        -0.000003      0.000063     -0.000058
      6.02252      2.36397     14.53774        -0.000065     -0.000109     -0.000202
     13.02771      2.36467     14.53774        -0.000004      0.000061     -0.000035
      6.02177      9.24743     14.53774        -0.000158      0.000729     -0.000203
     13.02696      9.24813     14.53774         0.000001      0.000085     -0.000035
      0.98193      4.52018      4.83761         0.000024     -0.000097     -0.000021
      7.98713      4.52087      4.83761        -0.006822      0.005756     -0.003482
      0.98118     11.40363      4.83761         0.000049     -0.000064     -0.000026
      7.98638     11.40433      4.83761         0.000007     -0.000097      0.000082
      0.98193      4.52018      9.68767         0.000039     -0.000056     -0.000077
      7.98713      4.52087      9.68767        -0.000000     -0.000035     -0.000083
      0.98118     11.40363      9.68767         0.000025     -0.000069     -0.000040
      7.98638     11.40433      9.68767         0.000022     -0.000021     -0.000104
      0.98193      4.52018     14.53774        -0.000058     -0.000117     -0.000085
      7.98713      4.52087     14.53774         0.000866     -0.000944     -0.001251
      0.98118     11.40363     14.53774        -0.000006     -0.000070     -0.000037
      7.98638     11.40433     14.53774         0.000012     -0.000093     -0.000006
      4.48438      5.80559      0.82079        -0.007990     -0.000697     -0.010441
     11.48958      5.80628      0.82079         0.000055      0.000033      0.000099
      4.48363     12.68904      0.82079        -0.000032      0.000026      0.000069
     11.48883     12.68974      0.82079         0.000029      0.000044      0.000058
      4.48438      5.80559      5.67085         0.007659      0.000707     -0.010003
     11.48958      5.80628      5.67085        -0.000077      0.000006      0.000099
      4.48363     12.68904      5.67085         0.000015      0.000030      0.000069
     11.48883     12.68974      5.67085         0.000020     -0.000012      0.000058
      4.48438      5.80559     10.52092         0.000009      0.000031     -0.000181
     11.48958      5.80628     10.52092         0.000013      0.000017     -0.000076
      4.48363     12.68904     10.52092         0.000009      0.000018      0.000028
     11.48883     12.68974     10.52092         0.000025      0.000015      0.000034
      2.52007      1.07856      0.82079        -0.000033     -0.000045      0.000023
      9.52526      1.07926      0.82079         0.000012     -0.000076      0.000048
      2.51931      7.96202      0.82079        -0.000145      0.000123      0.000194
      9.52451      7.96271      0.82079         0.000498      0.000097      0.000140
      2.52007      1.07856      5.67085        -0.000005      0.000078      0.000049
      9.52526      1.07926      5.67085        -0.000040      0.000046      0.000024
      2.51931      7.96202      5.67085         0.000154     -0.000073      0.000138
      9.52451      7.96271      5.67085        -0.000880     -0.000070      0.000193
      2.52007      1.07856     10.52092        -0.000021      0.000011      0.000034
      9.52526      1.07926     10.52092        -0.000018     -0.000006      0.000034
      2.51931      7.96202     10.52092        -0.000029     -0.000045     -0.000243
      9.52451      7.96271     10.52092        -0.000037     -0.000037     -0.000243
      2.51967      4.52025      2.41255        -0.000100     -0.000209      0.000143
      9.52486      4.52095      2.41255         0.000261     -0.000045      0.000144
      2.51891     11.40371      2.41255        -0.000017      0.000002      0.000006
      9.52411     11.40440      2.41255         0.000022      0.000003      0.000006
      2.51967      4.52025      7.26261         0.000046      0.000123     -0.000008
      9.52486      4.52095      7.26261         0.000003      0.000042     -0.000007
      2.51891     11.40371      7.26261         0.000004      0.000019     -0.000025
      9.52411     11.40440      7.26261        -0.000053     -0.000047     -0.000025
      2.51967      4.52025     12.11268        -0.000015     -0.000098     -0.000063
      9.52486      4.52095     12.11268         0.000028     -0.000000     -0.000063
      2.51891     11.40371     12.11268         0.000025     -0.000014     -0.000014
      9.52411     11.40440     12.11268         0.000035      0.000007     -0.000014
[...]
      7.00482      3.44242     12.13638         0.000032      0.000081      0.000094
     -0.00113     10.32518     12.13638         0.000001      0.000013     -0.000005
      7.00407     10.32588     12.13638        -0.000042     -0.000148      0.000356
      3.50222      3.44208      0.01111        -0.000138     -0.000514     -0.000401
     10.50742      3.44277      0.01111         0.000057      0.000010      0.000121
      3.50147     10.32553      0.01111         0.000001      0.000026     -0.000046
     10.50667     10.32623      0.01111        -0.000100     -0.000020      0.000030
      3.50222      3.44208      4.86117         0.000487      0.000322      0.000101
     10.50742      3.44277      4.86117         0.000242     -0.000105     -0.000087
      3.50147     10.32553      4.86117        -0.000177     -0.000007      0.000013
     10.50667     10.32623      4.86117         0.000104      0.000039      0.000046
      3.50222      3.44208      9.71124        -0.000038     -0.000027      0.000118
     10.50742      3.44277      9.71124        -0.000040     -0.000048      0.000131
      3.50147     10.32553      9.71124        -0.000006      0.000056      0.000209
     10.50667     10.32623      9.71124        -0.000027      0.000019      0.000110
    total drift:                                0.000007      0.000002      0.000001

  FREE ENERGIE OF THE ION-ELECTRON SYSTEM (eV)
  free  energy   TOTEN  =      -505.12823035 eV

  energy  without entropy=     -505.11300793  energy(sigma->0) =     -505.12061914