 vasp.5.4.4.18Apr17-6-g9f103f2a35 (build Jul 30 2020 14:31:59) complex

 executed on             LinuxIFC date 2021.02.03  10:48:01

 INCAR:
 POTCAR:    PAW_PBE Ag 02Apr2005
 POTCAR:    PAW_PBE Se 06Sep2000

 POTCAR:    PAW_PBE Ag 02Apr2005
   VRHFIN =Ag : s1 d10

   TITEL  = PAW_PBE Ag 02Apr2005
   POMASS =  107.868; ZVAL   =   11.000    mass and valenz
   ENMAX  =  249.844; ENMIN  =  187.383 eV

 POTCAR:    PAW_PBE Se 06Sep2000
   VRHFIN =Se: s2p4

   TITEL  = PAW_PBE Se 06Sep2000
   POMASS =   78.960; ZVAL   =    6.000    mass and valenz
   ENMAX  =  211.555; ENMIN  =  158.666 eV

  PAW_PBE Ag 02Apr2005                  :
  PAW_PBE Se 06Sep2000                  :

 POSCAR: # Compound: Ag8Se4. Old comment: Ag2Se p
  positions in direct lattice
 exchange correlation table for  LEXCH =       14
   RHO(1)=    0.500       N(1)  =     2000
   RHO(2)=  100.500       N(2)  =     4000

 ion  position               nearest neighbor table
   1  0.860  0.343  0.997-   9 2.68  12 2.74  11 2.81   8 2.84  11 2.85   6 2.87   6 2.87   2 2.92

   2  0.140  0.657  0.997-   9 2.68  12 2.74  11 2.81   7 2.84  11 2.85   5 2.87   5 2.87   1 2.92

[...]

  12  0.500  0.500  0.002-   3 2.68   4 2.68   1 2.74   2 2.74   5 2.81   6 2.81   5 2.85   6 2.85

IMPORTANT INFORMATION: All symmetrisations will be switched off!
NOSYMM: (Re-)initialisation of all symmetry stuff for point group C_1.

 KPOINTS: # No comment

Automatic generation of k-mesh.
Space group operators:
 irot       det(A)        alpha          n_x          n_y          n_z        tau_x        tau_y        tau_z
    1     1.000000     0.000000     1.000000     0.000000     0.000000     0.000000     0.000000     0.000000

 Subroutine IBZKPT returns following result:

 Found     52 irreducible k-points:

 Following reciprocal coordinates:
            Coordinates               Weight
  0.000000  0.000000  0.000000      1.000000
  0.250000 -0.000000  0.000000      2.000000
  0.500000 -0.000000  0.000000      1.000000
  0.000000  0.250000  0.000000      2.000000
  0.250000  0.250000  0.000000      2.000000
  0.500000  0.250000  0.000000      2.000000
 -0.250000  0.250000  0.000000      2.000000
  0.000000  0.500000  0.000000      1.000000
  0.250000  0.500000  0.000000      2.000000
  0.500000  0.500000  0.000000      1.000000
  0.000000  0.000000  0.166667      2.000000
  0.250000 -0.000000  0.166667      2.000000
  0.500000 -0.000000  0.166667      2.000000
 -0.250000  0.000000  0.166667      2.000000
  0.000000  0.250000  0.166667      2.000000
  0.250000  0.250000  0.166667      2.000000
  0.500000  0.250000  0.166667      2.000000
 -0.250000  0.250000  0.166667      2.000000
  0.000000  0.500000  0.166667      2.000000
  0.250000  0.500000  0.166667      2.000000
  0.500000  0.500000  0.166667      2.000000
 -0.250000  0.500000  0.166667      2.000000
  0.000000 -0.250000  0.166667      2.000000
  0.250000 -0.250000  0.166667      2.000000
  0.500000 -0.250000  0.166667      2.000000
 -0.250000 -0.250000  0.166667      2.000000
  0.000000  0.000000  0.333333      2.000000
  0.250000 -0.000000  0.333333      2.000000
  0.500000 -0.000000  0.333333      2.000000
 -0.250000  0.000000  0.333333      2.000000
  0.000000  0.250000  0.333333      2.000000
  0.250000  0.250000  0.333333      2.000000
  0.500000  0.250000  0.333333      2.000000
 -0.250000  0.250000  0.333333      2.000000
  0.000000  0.500000  0.333333      2.000000
  0.250000  0.500000  0.333333      2.000000
  0.500000  0.500000  0.333333      2.000000
 -0.250000  0.500000  0.333333      2.000000
  0.000000 -0.250000  0.333333      2.000000
  0.250000 -0.250000  0.333333      2.000000
  0.500000 -0.250000  0.333333      2.000000
 -0.250000 -0.250000  0.333333      2.000000
  0.000000  0.000000  0.500000      1.000000
  0.250000 -0.000000  0.500000      2.000000
  0.500000 -0.000000  0.500000      1.000000
  0.000000  0.250000  0.500000      2.000000
  0.250000  0.250000  0.500000      2.000000
  0.500000  0.250000  0.500000      2.000000
 -0.250000  0.250000  0.500000      2.000000
  0.000000  0.500000  0.500000      1.000000
  0.250000  0.500000  0.500000      2.000000
  0.500000  0.500000  0.500000      1.000000

 Following cartesian coordinates:
            Coordinates               Weight
  0.000000  0.000000  0.000000      1.000000
  0.035688  0.000004  0.000000      2.000000
  0.071376  0.000008  0.000000      1.000000
 -0.000004  0.036319  0.000000      2.000000
  0.035684  0.036323  0.000000      2.000000
  0.071372  0.036327  0.000000      2.000000
 -0.035691  0.036315  0.000000      2.000000
 -0.000007  0.072638  0.000000      1.000000
  0.035681  0.072642  0.000000      2.000000
  0.071368  0.072646  0.000000      1.000000
  0.000000  0.000000  0.034364      2.000000
  0.035688  0.000004  0.034364      2.000000
  0.071376  0.000008  0.034364      2.000000
 -0.035688 -0.000004  0.034364      2.000000
 -0.000004  0.036319  0.034364      2.000000
  0.035684  0.036323  0.034364      2.000000
  0.071372  0.036327  0.034364      2.000000
 -0.035691  0.036315  0.034364      2.000000
 -0.000007  0.072638  0.034364      2.000000
  0.035681  0.072642  0.034364      2.000000
  0.071368  0.072646  0.034364      2.000000
 -0.035695  0.072634  0.034364      2.000000
  0.000004 -0.036319  0.034364      2.000000
  0.035691 -0.036315  0.034364      2.000000
  0.071379 -0.036311  0.034364      2.000000
 -0.035684 -0.036323  0.034364      2.000000
  0.000000  0.000000  0.068728      2.000000
  0.035688  0.000004  0.068728      2.000000
  0.071376  0.000008  0.068728      2.000000
 -0.035688 -0.000004  0.068728      2.000000
 -0.000004  0.036319  0.068728      2.000000
  0.035684  0.036323  0.068728      2.000000
  0.071372  0.036327  0.068728      2.000000
 -0.035691  0.036315  0.068728      2.000000
 -0.000007  0.072638  0.068728      2.000000
  0.035681  0.072642  0.068728      2.000000
  0.071368  0.072646  0.068728      2.000000
 -0.035695  0.072634  0.068728      2.000000
  0.000004 -0.036319  0.068728      2.000000
  0.035691 -0.036315  0.068728      2.000000
  0.071379 -0.036311  0.068728      2.000000
 -0.035684 -0.036323  0.068728      2.000000
  0.000000  0.000000  0.103091      1.000000
  0.035688  0.000004  0.103091      2.000000
  0.071376  0.000008  0.103091      1.000000
 -0.000004  0.036319  0.103091      2.000000
  0.035684  0.036323  0.103091      2.000000
  0.071372  0.036327  0.103091      2.000000
 -0.035691  0.036315  0.103091      2.000000
 -0.000007  0.072638  0.103091      1.000000
  0.035681  0.072642  0.103091      2.000000
  0.071368  0.072646  0.103091      1.000000

 Subroutine IBZKPT_HF returns following result:

 Found     96 k-points in 1st BZ
 the following     96 k-points will be used (e.g. in the exchange kernel)
 Following reciprocal coordinates:   # in IRBZ
  0.000000  0.000000  0.000000    0.01041667   1 t-inv F
  0.250000 -0.000000  0.000000    0.01041667   2 t-inv F
  0.500000 -0.000000  0.000000    0.01041667   3 t-inv F
  0.000000  0.250000  0.000000    0.01041667   4 t-inv F
  0.250000  0.250000  0.000000    0.01041667   5 t-inv F
  0.500000  0.250000  0.000000    0.01041667   6 t-inv F
 -0.250000  0.250000  0.000000    0.01041667   7 t-inv F
  0.000000  0.500000  0.000000    0.01041667   8 t-inv F
  0.250000  0.500000  0.000000    0.01041667   9 t-inv F
  0.500000  0.500000  0.000000    0.01041667  10 t-inv F
  0.000000  0.000000  0.166667    0.01041667  11 t-inv F
  0.250000 -0.000000  0.166667    0.01041667  12 t-inv F
  0.500000 -0.000000  0.166667    0.01041667  13 t-inv F
 -0.250000  0.000000  0.166667    0.01041667  14 t-inv F
  0.000000  0.250000  0.166667    0.01041667  15 t-inv F
  0.250000  0.250000  0.166667    0.01041667  16 t-inv F
  0.500000  0.250000  0.166667    0.01041667  17 t-inv F
 -0.250000  0.250000  0.166667    0.01041667  18 t-inv F
  0.000000  0.500000  0.166667    0.01041667  19 t-inv F
  0.250000  0.500000  0.166667    0.01041667  20 t-inv F
  0.500000  0.500000  0.166667    0.01041667  21 t-inv F
 -0.250000  0.500000  0.166667    0.01041667  22 t-inv F
  0.000000 -0.250000  0.166667    0.01041667  23 t-inv F
  0.250000 -0.250000  0.166667    0.01041667  24 t-inv F
  0.500000 -0.250000  0.166667    0.01041667  25 t-inv F
 -0.250000 -0.250000  0.166667    0.01041667  26 t-inv F
  0.000000  0.000000  0.333333    0.01041667  27 t-inv F
  0.250000 -0.000000  0.333333    0.01041667  28 t-inv F
  0.500000 -0.000000  0.333333    0.01041667  29 t-inv F
 -0.250000  0.000000  0.333333    0.01041667  30 t-inv F
  0.000000  0.250000  0.333333    0.01041667  31 t-inv F
  0.250000  0.250000  0.333333    0.01041667  32 t-inv F
  0.500000  0.250000  0.333333    0.01041667  33 t-inv F
 -0.250000  0.250000  0.333333    0.01041667  34 t-inv F
  0.000000  0.500000  0.333333    0.01041667  35 t-inv F
  0.250000  0.500000  0.333333    0.01041667  36 t-inv F
  0.500000  0.500000  0.333333    0.01041667  37 t-inv F
 -0.250000  0.500000  0.333333    0.01041667  38 t-inv F
  0.000000 -0.250000  0.333333    0.01041667  39 t-inv F
  0.250000 -0.250000  0.333333    0.01041667  40 t-inv F
  0.500000 -0.250000  0.333333    0.01041667  41 t-inv F
 -0.250000 -0.250000  0.333333    0.01041667  42 t-inv F
  0.000000  0.000000  0.500000    0.01041667  43 t-inv F
  0.250000 -0.000000  0.500000    0.01041667  44 t-inv F
  0.500000 -0.000000  0.500000    0.01041667  45 t-inv F
  0.000000  0.250000  0.500000    0.01041667  46 t-inv F
  0.250000  0.250000  0.500000    0.01041667  47 t-inv F
  0.500000  0.250000  0.500000    0.01041667  48 t-inv F
 -0.250000  0.250000  0.500000    0.01041667  49 t-inv F
  0.000000  0.500000  0.500000    0.01041667  50 t-inv F
  0.250000  0.500000  0.500000    0.01041667  51 t-inv F
  0.500000  0.500000  0.500000    0.01041667  52 t-inv F
 -0.250000  0.000000  0.000000    0.01041667   2 t-inv T
  0.000000 -0.250000  0.000000    0.01041667   4 t-inv T
 -0.250000 -0.250000  0.000000    0.01041667   5 t-inv T
 -0.500000 -0.250000  0.000000    0.01041667   6 t-inv T
  0.250000 -0.250000  0.000000    0.01041667   7 t-inv T
 -0.250000 -0.500000  0.000000    0.01041667   9 t-inv T
  0.000000  0.000000 -0.166667    0.01041667  11 t-inv T
 -0.250000  0.000000 -0.166667    0.01041667  12 t-inv T
[...]
  0.250000 -0.250000 -0.333333    0.01041667  34 t-inv T
  0.000000 -0.500000 -0.333333    0.01041667  35 t-inv T
 -0.250000 -0.500000 -0.333333    0.01041667  36 t-inv T
 -0.500000 -0.500000 -0.333333    0.01041667  37 t-inv T
  0.250000 -0.500000 -0.333333    0.01041667  38 t-inv T
  0.000000  0.250000 -0.333333    0.01041667  39 t-inv T
 -0.250000  0.250000 -0.333333    0.01041667  40 t-inv T
 -0.500000  0.250000 -0.333333    0.01041667  41 t-inv T
  0.250000  0.250000 -0.333333    0.01041667  42 t-inv T
 -0.250000  0.000000 -0.500000    0.01041667  44 t-inv T
  0.000000 -0.250000 -0.500000    0.01041667  46 t-inv T
 -0.250000 -0.250000 -0.500000    0.01041667  47 t-inv T
 -0.500000 -0.250000 -0.500000    0.01041667  48 t-inv T
  0.250000 -0.250000 -0.500000    0.01041667  49 t-inv T
 -0.250000 -0.500000 -0.500000    0.01041667  51 t-inv T

 SYSTEM =  unknown system
 POSCAR =  # Compound: Ag8Se4. Old comment: Ag2Se p

[...]
     76      14.7864      0.00000
     77      14.7867      0.00000
     78      15.1610      0.00000
     79      15.1798      0.00000
     80      15.4755      0.00000

[...]

 k-point    52 :       0.5000    0.5000    0.5000
  band No.  band energies     occupation
      1      -6.8934      2.00000
      2      -6.8934      2.00000
      3      -6.8934      2.00000
      4      -6.8934      2.00000
      5       0.0633      2.00000
      6       0.0633      2.00000
      7       0.0633      2.00000
      8       0.0634      2.00000
      9       0.8564      2.00000
     10       0.8564      2.00000
     11       0.8565      2.00000
     12       0.8565      2.00000
     13       1.3254      2.00000
     14       1.3255      2.00000
     15       1.3255      2.00000
     16       1.3255      2.00000
     17       1.5375      2.00000
     18       1.5376      2.00000
     19       1.5376      2.00000
     20       1.5376      2.00000
     21       1.6817      2.00000
     22       1.6817      2.00000
     23       1.6817      2.00000
     24       1.6818      2.00000
     25       1.8349      2.00000
     26       1.8349      2.00000
     27       1.8350      2.00000
     28       1.8350      2.00000
     29       2.3855      2.00000
     30       2.3855      2.00000
     31       2.3855      2.00000
     32       2.3855      2.00000
     33       2.4989      2.00000
     34       2.4989      2.00000
     35       2.4990      2.00000
     36       2.4990      2.00000
     37       2.6111      2.00000
     38       2.6111      2.00000
     39       2.6111      2.00000
     40       2.6111      2.00000
     41       2.9674      2.00000
     42       2.9674      2.00000
     43       2.9674      2.00000
     44       2.9674      2.00000
     45       3.2102      2.00000
     46       3.2102      2.00000
     47       3.2102      2.00000
     48       3.2102      2.00000
     49       4.8157      2.00000
     50       4.8157      2.00000
     51       4.8157      2.00000
     52       4.8158      2.00000
     53       5.3010      2.00000
     54       5.3010      2.00000
     55       5.3011      2.00000
     56       5.3011      2.00000
     57       7.4873      0.00000
     58       7.4873      0.00000
     59       7.4873      0.00000
     60       7.4873      0.00000
[...]
     66      12.1930      0.00000
     67      12.1931      0.00000
     68      12.1931      0.00000
     69      13.1771      0.00000
     70      13.1771      0.00000
     71      13.1772      0.00000
     72      13.1772      0.00000
     73      14.1387      0.00000
     74      14.1388      0.00000
     75      14.1389      0.00000
     76      14.1390      0.00000
     77      15.2872      0.00000
     78      15.2872      0.00000
     79      15.2872      0.00000
     80      15.2873      0.00000

 soft charge-density along one line, spin component           1
         0         1         2         3         4         5         6         7         8         9
 total charge-density along one line

------------------------ aborting loop because EDIFF is reached ----------------------------------------

  FORCE on cell =-STRESS in cart. coord.  units (eV):
  Direction    XX          YY          ZZ          XY          YZ          ZX
  Alpha Z   407.58153   407.58153   407.58153
  Ewald   -2685.60030 -3038.55877 -2512.78374     0.02914     0.00000    -0.00000
  Hartree   729.17706   518.94017   806.70931     0.01868     0.00000    -0.00000
  E(xc)    -548.77456  -548.89831  -548.34208    -0.00000     0.00000    -0.00000
  Local     -81.08959   477.25149  -324.43570    -0.04770     0.00000     0.00000
  n-local    80.21816    76.93696    79.82325     0.00035    -0.00000     0.00000
  augment   717.70426   720.70980   716.32779    -0.00023    -0.00000     0.00000
  Kinetic  1380.78319  1386.03673  1375.11921    -0.00020     0.00000    -0.00000
  Fock        0.00000     0.00000     0.00000     0.00000     0.00000     0.00000
  Total      -0.00025    -0.00040    -0.00043     0.00003     0.00000     0.00000
  in kB      -0.00171    -0.00272    -0.00292     0.00022     0.00000     0.00000

 VOLUME and BASIS-vectors are now :
  energy-cutoff  :      650.00
  volume of cell :      233.87
      direct lattice vectors                 reciprocal lattice vectors
     7.005197990  0.000695690  0.000000000     0.142751139  0.000015574  0.000000000
    -0.000750980  6.883455460  0.000000000    -0.000014427  0.145275871  0.000000000
     0.000000000  0.000000000  4.850064620     0.000000000  0.000000000  0.206182820

  length of vectors
     7.005198025  6.883455501  4.850064620     0.142751139  0.145275872  0.206182820

 FORCES acting on ions
    electron-ion (+dipol)            ewald-force                    non-local-force                 convergence-correction
   0.199E+02 0.570E+01 -.299E+02   -.196E+02 -.632E+01 0.300E+02   -.275E+00 0.625E+00 -.109E+00   -.303E-04 0.539E-04 -.498E-04
   -.199E+02 -.570E+01 -.299E+02   0.196E+02 0.632E+01 0.300E+02   0.275E+00 -.625E+00 -.109E+00   0.316E-04 -.484E-04 -.492E-04
   -.199E+02 0.570E+01 0.299E+02   0.196E+02 -.632E+01 -.300E+02   0.275E+00 0.625E+00 0.109E+00   0.327E-04 0.494E-04 0.491E-04
   0.199E+02 -.570E+01 0.299E+02   -.196E+02 0.632E+01 -.300E+02   -.275E+00 -.625E+00 0.109E+00   -.293E-04 -.542E-04 0.497E-04
   0.199E+02 -.570E+01 -.299E+02   -.196E+02 0.632E+01 0.300E+02   -.275E+00 -.625E+00 -.109E+00   -.318E-04 -.489E-04 -.507E-04
   -.199E+02 0.570E+01 -.299E+02   0.196E+02 -.632E+01 0.300E+02   0.275E+00 0.625E+00 -.109E+00   0.306E-04 0.528E-04 -.497E-04
   0.199E+02 0.571E+01 0.299E+02   -.196E+02 -.633E+01 -.300E+02   -.275E+00 0.625E+00 0.109E+00   -.325E-04 0.496E-04 0.506E-04
   -.199E+02 -.571E+01 0.299E+02   0.196E+02 0.633E+01 -.300E+02   0.275E+00 -.625E+00 0.109E+00   0.307E-04 -.538E-04 0.497E-04
   0.152E-05 0.493E-05 -.315E+02   0.299E-13 0.560E-13 0.328E+02   0.128E-07 -.261E-06 -.136E+01   -.159E-05 -.492E-05 -.157E-04
   -.183E-05 0.297E-05 -.315E+02   -.418E-13 0.633E-13 0.328E+02   0.154E-06 0.116E-07 -.136E+01   0.179E-05 -.302E-05 -.153E-04
   -.107E-05 -.340E-05 0.315E+02   -.300E-13 0.231E-15 -.328E+02   0.131E-06 0.387E-07 0.136E+01   0.102E-05 0.343E-05 0.154E-04
   0.107E-05 -.442E-05 0.315E+02   0.524E-13 -.937E-14 -.328E+02   -.220E-07 0.207E-06 0.136E+01   -.110E-05 0.445E-05 0.157E-04
   -.225E-05 -.148E-06 -.580E-03   -.214E-13 0.421E-16 0.284E-13   0.401E-06 -.134E-07 0.571E-03   0.176E-05 0.199E-06 -.191E-06

 POSITION                                       TOTAL-FORCE (eV/Angst)
      6.02252      2.36397      4.83761        -0.000008      0.000068     -0.000022
      0.98193      4.52018      4.83761         0.000008     -0.000068     -0.000022
      4.48438      5.80559      0.82079         0.000009      0.000022      0.000041
      2.52007      1.07856      0.82079        -0.000009     -0.000022      0.000041
      2.51967      4.52025      2.41255         0.000006     -0.000001      0.000001
      4.48478      2.36390      2.41255        -0.000006      0.000001      0.000001
      6.02211      5.80576      3.24586         0.000024      0.000012      0.000008
      0.98234      1.07839      3.24586        -0.000024     -0.000012      0.000007
      0.00000      0.00000      0.79726        -0.000000     -0.000000     -0.000094
      3.50260      0.00035      3.22217         0.000000     -0.000000      0.000009
     -0.00038      3.44173      2.43625         0.000000      0.000000     -0.000031
      3.50222      3.44208      0.01111        -0.000000      0.000000      0.000059
    total drift:                               -0.000000      0.000000     -0.000009

  FREE ENERGIE OF THE ION-ELECTRON SYSTEM (eV)
  free  energy   TOTEN  =       -42.09223770 eV

  energy  without entropy=      -42.09096880  energy(sigma->0) =      -42.09160325

 Linear response reoptimize wavefunctions
 Linear response G [H, r] |phi>, progress :
  Direction:   1

----------------------------------------- Iteration    1(   1)  ---------------------------------------

  free energy    TOTEN  =      -517.59282518 eV

[...]

 Linear response G [H, r] |phi>, progress :
  Direction:   2

[...]

 Linear response G [H, r] |phi>, progress :
  Direction:   3

[...]

  free energy    TOTEN  =      -465.64080904 eV

[...]

 Linear response to external field (no local field effect), progress :
  Direction:   1

[...]

 Free energy of the ion-electron system (eV)
  -Hartree energ DENC   =         0.00000000
  -V(xc)+E(xc)   XCENC  =         0.00000000
  PAW double counting   =         0.00000000        0.00000000
  entropy T*S    EENTRO =         0.00000000
  eigenvalues    EBANDS =       -20.33852122
  free energy    TOTEN  =       -20.33852122 eV

  energy without entropy =      -20.33852122

[...]

 change of polarisation eV/A/(eV/A) component  1 :    76.173     0.008     0.000
 dielectric tensor                  component  1 :    59.938     0.006     0.000

[...]

 Linear response to external field (no local field effect), progress :
  Direction:   3

[...]

 HEAD OF MICROSCOPIC STATIC DIELECTRIC TENSOR (INDEPENDENT PARTICLE, excluding Hartree and local field effects)
          59.937879     0.006946    -0.000010
           0.005991    22.187379     0.000001
           0.000015    -0.000002    23.653119

 Linear response to external field, progress :
  Direction:   1

[...]

 PIEZOELECTRIC TENSOR FIELD DIRECTION 1  (e Angst)
    -0.00394 -0.01203 -0.25468           (  0.00009 -0.00008  0.00211)
    -0.01203 -0.00039 -0.00097           ( -0.00008  0.00004  0.00002)
    -0.25466 -0.00098  0.00428           (  0.00211  0.00002  0.00014)

 PIEZOELECTRIC TENSOR FIELD DIRECTION 1  (C/m^2)
    -0.00027 -0.00082 -0.01745
    -0.00082 -0.00003 -0.00007
    -0.01745 -0.00007  0.00029

      POSITION         DIRECTION 1           BORN EFFECTIVE CHARGE    (rigid.aug.   ionic)
      6.02252      2.36397      4.83761     1.19334 -0.28197 -0.11301 ( -5.29131 11.00000)
      0.98193      4.52018      4.83761     1.19300 -0.28431  0.11647 ( -5.29131 11.00000)
      4.48438      5.80559      0.82079     1.18573  0.33680 -0.10263 ( -5.29131 11.00000)
      2.52007      1.07856      0.82079     1.18523  0.33997  0.10732 ( -5.29131 11.00000)
      2.51967      4.52025      2.41255     1.19270  0.28469 -0.11740 ( -5.29131 11.00000)
      4.48478      2.36390      2.41255     1.19319  0.28152  0.11270 ( -5.29131 11.00000)
      6.02211      5.80576      3.24586     1.18559 -0.33736  0.10347 ( -5.29131 11.00000)
      0.98234      1.07839      3.24586     1.18524 -0.33970 -0.10693 ( -5.29131 11.00000)
      0.00000      0.00000      0.79726    -2.49221  0.02257 -0.00060 (  1.12289  6.00000)
      3.50260      0.00035      3.22217    -2.49096 -0.02171 -0.00074 (  1.12289  6.00000)
     -0.00038      3.44173      2.43625    -2.42628  0.13517  0.00059 (  1.12289  6.00000)
      3.50222      3.44208      0.01111    -2.42727 -0.13573  0.00075 (  1.12289  6.00000)
    total drift (improves with k-points):  -0.32271 -0.00006 -0.00000

[...]

 Linear response to external field, progress :
  Direction:   3

[...]

----------------------------------------- Iteration    3(  22)  ---------------------------------------

 Broyden mixing:
  rms(total) = 0.44266E-05    rms(broyden)= 0.44266E-05
  rms(prec ) = 0.44290E-05
  weight for this iteration     100.00

 eigenvalues of (default mixing * dielectric matrix)
  average eigenvalue GAMMA=   1.0779
  2.8811  2.6290  2.2356  2.1994  2.1994  1.6013  1.3866  0.9738  0.9738  1.0087
  0.9890  0.6745  0.4870  0.4870  0.4044  0.1084  0.1084  0.1519  0.0047  0.0537

 Free energy of the ion-electron system (eV)
  -Hartree energ DENC   =        -0.55733020
  -V(xc)+E(xc)   XCENC  =         0.02511678
  PAW double counting   =         1.43408044       -1.48720918
  entropy T*S    EENTRO =         0.00000000
  eigenvalues    EBANDS =       -13.70335092
  free energy    TOTEN  =       -14.28869308 eV

  energy without entropy =      -14.28869308

------------------------ aborting loop because EDIFF is reached ----------------------------------------

 change of polarisation eV/A/(eV/A) component  3 :    -0.000     0.000    28.006
 dielectric tensor                  component  3 :    -0.000     0.000    22.669

 PIEZOELECTRIC TENSOR FIELD DIRECTION 3  (e Angst)
    -0.00235  0.00076  0.00103           (  0.00049 -0.00005  0.00004)
     0.00077  0.00715 -0.00759           ( -0.00005  0.00045 -0.00014)
     0.00103 -0.00759 -0.00903           (  0.00004 -0.00014  0.00039)

 PIEZOELECTRIC TENSOR FIELD DIRECTION 3  (C/m^2)
    -0.00016  0.00005  0.00007
     0.00005  0.00049 -0.00052
     0.00007 -0.00052 -0.00062

      POSITION         DIRECTION 3           BORN EFFECTIVE CHARGE    (rigid.aug.   ionic)
      6.02252      2.36397      4.83761    -0.00147  0.09252  1.49284 ( -5.29131 11.00000)
      0.98193      4.52018      4.83761     0.00230 -0.09374  1.49185 ( -5.29131 11.00000)
      4.48438      5.80559      0.82079    -0.00406 -0.09127  1.49184 ( -5.29131 11.00000)
      2.52007      1.07856      0.82079     0.00473  0.09267  1.49099 ( -5.29131 11.00000)
      2.51967      4.52025      2.41255    -0.00234 -0.09396  1.49211 ( -5.29131 11.00000)
      4.48478      2.36390      2.41255     0.00168  0.09257  1.49294 ( -5.29131 11.00000)
      6.02211      5.80576      3.24586     0.00413 -0.09141  1.49222 ( -5.29131 11.00000)
      0.98234      1.07839      3.24586    -0.00496  0.09263  1.49121 ( -5.29131 11.00000)
      0.00000      0.00000      0.79726     0.00456  0.00059 -2.94666 (  1.12289  6.00000)
      3.50260      0.00035      3.22217    -0.00464  0.00048 -2.94686 (  1.12289  6.00000)
     -0.00038      3.44173      2.43625    -0.00456 -0.00056 -2.94478 (  1.12289  6.00000)
      3.50222      3.44208      0.01111     0.00466 -0.00050 -2.94490 (  1.12289  6.00000)
    total drift (improves with k-points):   0.00002  0.00002  0.15282

 MACROSCOPIC STATIC DIELECTRIC TENSOR (including local field effects in DFT)
          59.204896     0.006899    -0.000010
           0.005957    21.689638     0.000000
           0.000014    -0.000002    22.668872

 MACROSCOPIC STATIC DIELECTRIC TENSOR (including local field effects in DFT)
          59.204896     0.006899    -0.000010
           0.005957    21.689638     0.000000
           0.000014    -0.000002    22.668872

 PIEZOELECTRIC TENSOR  for field in x, y, z        (e  Angst)
          XX          YY          ZZ          XY          YZ          ZX
  x    -0.00394    -0.00039     0.00428    -0.01203    -0.00098    -0.25468
  y     0.00057     0.00032     0.00361    -0.00597    -0.00805     0.00276
  z    -0.00235     0.00715    -0.00903     0.00077    -0.00759     0.00103

 PIEZOELECTRIC TENSOR  for field in x, y, z        (C/m^2)
          XX          YY          ZZ          XY          YZ          ZX
  x    -0.00027    -0.00003     0.00029    -0.00082    -0.00007    -0.01745
  y     0.00004     0.00002     0.00025    -0.00041    -0.00055     0.00019
  z    -0.00016     0.00049    -0.00062     0.00005    -0.00052     0.00007

 BORN EFFECTIVE CHARGES (in e, cummulative output)
 ion    1
    1     1.22023    -0.28196    -0.11301
    2    -0.13053     1.49201    -0.13823
    3    -0.00147     0.09252     1.48011
 ion    2
    1     1.21989    -0.28430     0.11647
    2    -0.13133     1.49117     0.13886
    3     0.00230    -0.09374     1.47912
 ion    3
    1     1.21262     0.33680    -0.10263
    2     0.13175     1.49155     0.14125
    3    -0.00406    -0.09128     1.47910
 ion    4
    1     1.21212     0.33997     0.10732
    2     0.13080     1.49304    -0.13846
    3     0.00473     0.09267     1.47826
 ion    5
    1     1.21959     0.28470    -0.11740
    2     0.13010     1.49302     0.13722
    3    -0.00234    -0.09396     1.47938
 ion    6
    1     1.22008     0.28153     0.11270
    2     0.13106     1.49153    -0.14002
    3     0.00168     0.09257     1.48021
 ion    7
    1     1.21248    -0.33736     0.10347
    2    -0.13097     1.49317     0.13964
    3     0.00412    -0.09141     1.47948
 ion    8
    1     1.21213    -0.33970    -0.10693
    2    -0.13177     1.49233    -0.14027
    3    -0.00497     0.09263     1.47848
 ion    9
    1    -2.46532     0.02257    -0.00060
    2     0.38664    -2.98328     0.00006
    3     0.00456     0.00059    -2.95939
 ion   10
    1    -2.46407    -0.02170    -0.00074
    2    -0.38561    -2.98481    -0.00142
    3    -0.00465     0.00048    -2.95960
 ion   11
    1    -2.39939     0.13517     0.00059
    2     0.38210    -2.98513    -0.00005
    3    -0.00456    -0.00056    -2.95751
 ion   12
    1    -2.40038    -0.13572     0.00075
    2    -0.38225    -2.98460     0.00142
    3     0.00465    -0.00050    -2.95763