 vasp.5.4.4.18Apr17-6-g9f103f2a35 (build Jul 30 2020 14:31:59) complex

 executed on             LinuxIFC date 2020.11.04  05:21:56

 INCAR:
 POTCAR:    PAW_PBE Se 06Sep2000
 POTCAR:    PAW_PBE Ag 02Apr2005

 POTCAR:    PAW_PBE Se 06Sep2000
   VRHFIN =Se: s2p4

   TITEL  = PAW_PBE Se 06Sep2000
   POMASS =   78.960; ZVAL   =    6.000    mass and valenz
   ENMAX  =  211.555; ENMIN  =  158.666 eV

 POTCAR:    PAW_PBE Ag 02Apr2005
   VRHFIN =Ag : s1 d10

   TITEL  = PAW_PBE Ag 02Apr2005
   POMASS =  107.868; ZVAL   =   11.000    mass and valenz
   ENMAX  =  249.844; ENMIN  =  187.383 eV

  PAW_PBE Se 06Sep2000                  :
  PAW_PBE Ag 02Apr2005                  :

 POSCAR: # Compound: Se64Ag128. Old comment: Ag2S
  positions in direct lattice
 exchange correlation table for  LEXCH =       14
   RHO(1)=    0.500       N(1)  =     2000
   RHO(2)=  100.500       N(2)  =     4000

 ion  position               nearest neighbor table
   1  0.080  0.124  0.078-  65 2.62  81 2.62 129 2.71 185 2.72 188 2.77 149 2.83 121 2.92
   2  0.330  0.124  0.078-  82 2.62  66 2.62 130 2.71 186 2.72 185 2.77 150 2.83 122 2.92
   3  0.580  0.124  0.078-  83 2.62  67 2.62 131 2.71 187 2.72 186 2.77 151 2.83 123 2.92
   4  0.830  0.124  0.078-  84 2.62  68 2.62 132 2.71 188 2.72 187 2.77 152 2.83 124 2.92
   5  0.080  0.624  0.078-  85 2.62  69 2.62 133 2.71 189 2.72 192 2.77 145 2.83 125 2.92
   6  0.330  0.624  0.078-  86 2.62  70 2.62 134 2.71 190 2.72 189 2.77 146 2.83 126 2.92
   7  0.580  0.624  0.078-  87 2.62  71 2.62 135 2.71 191 2.72 190 2.77 147 2.83 127 2.92
   8  0.830  0.624  0.078-  88 2.62  72 2.62 136 2.71 192 2.72 191 2.77 148 2.83 128 2.92
   9  0.080  0.124  0.578-  89 2.62  73 2.62 137 2.71 177 2.72 180 2.77 157 2.83 113 2.92
  10  0.330  0.124  0.578-  90 2.62  74 2.62 138 2.71 178 2.72 177 2.77 158 2.83 114 2.92
  11  0.580  0.124  0.578-  91 2.62  75 2.62 139 2.71 179 2.72 178 2.77 159 2.83 115 2.92
  12  0.830  0.124  0.578-  92 2.62  76 2.62 140 2.71 180 2.72 179 2.77 160 2.83 116 2.92
  13  0.080  0.624  0.578-  93 2.62  77 2.62 141 2.71 181 2.72 184 2.77 153 2.83 117 2.92
  14  0.330  0.624  0.578-  94 2.62  78 2.62 142 2.71 182 2.72 181 2.77 154 2.83 118 2.92
  15  0.580  0.624  0.578-  95 2.62  79 2.62 143 2.71 183 2.72 182 2.77 155 2.83 119 2.92
  16  0.830  0.624  0.578-  96 2.62  80 2.62 144 2.71 184 2.72 183 2.77 156 2.83 120 2.92
  17  0.045  0.374  0.172-  72 2.62  84 2.62 145 2.71 164 2.72 161 2.77 129 2.83  97 2.92
  18  0.295  0.374  0.172-  69 2.62  81 2.62 146 2.71 161 2.72 162 2.77 130 2.83  98 2.92
  19  0.545  0.374  0.172-  70 2.62  82 2.62 147 2.71 162 2.72 163 2.77 131 2.83  99 2.92
  20  0.795  0.374  0.172-  71 2.62  83 2.62 148 2.71 163 2.72 164 2.77 132 2.83 100 2.92
  21  0.045  0.874  0.172-  68 2.62  88 2.62 149 2.71 168 2.72 165 2.77 133 2.83 101 2.92
  22  0.295  0.874  0.172-  85 2.62  65 2.62 150 2.71 165 2.72 166 2.77 134 2.83 102 2.92
  23  0.545  0.874  0.172-  66 2.62  86 2.62 151 2.71 166 2.72 167 2.77 135 2.83 103 2.92
  24  0.795  0.874  0.172-  67 2.62  87 2.62 152 2.71 167 2.72 168 2.77 136 2.83 104 2.92
  25  0.045  0.374  0.672-  80 2.62  92 2.62 153 2.71 172 2.72 169 2.77 137 2.83 105 2.92
  26  0.295  0.374  0.672-  77 2.62  89 2.62 154 2.71 169 2.72 170 2.77 138 2.83 106 2.92
  27  0.545  0.374  0.672-  78 2.62  90 2.62 155 2.71 170 2.72 171 2.77 139 2.83 107 2.92
  28  0.795  0.374  0.672-  79 2.62  91 2.62 156 2.71 171 2.72 172 2.77 140 2.83 108 2.92
  29  0.045  0.874  0.672-  76 2.62  96 2.62 157 2.71 176 2.72 173 2.77 141 2.83 109 2.92
  30  0.295  0.874  0.672-  73 2.62  93 2.62 158 2.71 173 2.72 174 2.77 142 2.83 110 2.92
  31  0.545  0.874  0.672-  74 2.62  94 2.62 159 2.71 174 2.72 175 2.77 143 2.83 111 2.92
  32  0.795  0.874  0.672-  75 2.62  95 2.62 160 2.71 175 2.72 176 2.77 144 2.83 112 2.92
  33  0.170  0.376  0.422- 113 2.62  97 2.62 161 2.71 153 2.72 154 2.77 181 2.83  89 2.92
  34  0.420  0.376  0.422- 114 2.62  98 2.62 162 2.71 154 2.72 155 2.77 182 2.83  90 2.92
  35  0.670  0.376  0.422- 115 2.62  99 2.62 163 2.71 155 2.72 156 2.77 183 2.83  91 2.92
  36  0.920  0.376  0.422- 116 2.62 100 2.62 164 2.71 156 2.72 153 2.77 184 2.83  92 2.92
  37  0.170  0.876  0.422- 117 2.62 101 2.62 165 2.71 157 2.72 158 2.77 177 2.83  93 2.92
  38  0.420  0.876  0.422- 118 2.62 102 2.62 166 2.71 158 2.72 159 2.77 178 2.83  94 2.92
  39  0.670  0.876  0.422- 119 2.62 103 2.62 167 2.71 159 2.72 160 2.77 179 2.83  95 2.92
  40  0.920  0.876  0.422- 120 2.62 104 2.62 168 2.71 160 2.72 157 2.77 180 2.83  96 2.92
  41  0.170  0.376  0.922- 121 2.62 105 2.62 169 2.71 145 2.72 146 2.77 189 2.83  81 2.92
  42  0.420  0.376  0.922- 122 2.62 106 2.62 170 2.71 146 2.72 147 2.77 190 2.83  82 2.92
  43  0.670  0.376  0.922- 123 2.62 107 2.62 171 2.71 147 2.72 148 2.77 191 2.83  83 2.92
  44  0.920  0.376  0.922- 124 2.62 108 2.62 172 2.71 148 2.72 145 2.77 192 2.83  84 2.92
  45  0.170  0.876  0.922- 125 2.62 109 2.62 173 2.71 149 2.72 150 2.77 185 2.83  85 2.92
  46  0.420  0.876  0.922- 126 2.62 110 2.62 174 2.71 150 2.72 151 2.77 186 2.83  86 2.92
  47  0.670  0.876  0.922- 127 2.62 111 2.62 175 2.71 151 2.72 152 2.77 187 2.83  87 2.92
  48  0.920  0.876  0.922- 128 2.62 112 2.62 176 2.71 152 2.72 149 2.77 188 2.83  88 2.92
  49  0.205  0.126  0.328- 102 2.62 114 2.62 177 2.71 130 2.72 129 2.77 161 2.83  65 2.91
  50  0.455  0.126  0.328- 103 2.62 115 2.62 178 2.71 131 2.72 130 2.77 162 2.83  66 2.92
  51  0.705  0.126  0.328- 104 2.62 116 2.62 179 2.71 132 2.72 131 2.77 163 2.83  67 2.92
  52  0.955  0.126  0.328- 101 2.62 113 2.62 180 2.71 129 2.72 132 2.77 164 2.83  68 2.92
  53  0.205  0.626  0.328-  98 2.62 118 2.62 181 2.71 134 2.72 133 2.77 165 2.83  69 2.92
  54  0.455  0.626  0.328-  99 2.62 119 2.62 182 2.71 135 2.72 134 2.77 166 2.83  70 2.92
  55  0.705  0.626  0.328- 100 2.62 120 2.62 183 2.71 136 2.72 135 2.77 167 2.83  71 2.92
  56  0.955  0.626  0.328-  97 2.62 117 2.62 184 2.71 133 2.72 136 2.77 168 2.83  72 2.92
  57  0.205  0.126  0.828- 110 2.62 122 2.62 185 2.71 138 2.72 137 2.77 169 2.83  73 2.92
  58  0.455  0.126  0.828- 111 2.62 123 2.62 186 2.71 139 2.72 138 2.77 170 2.83  74 2.92
  59  0.705  0.126  0.828- 112 2.62 124 2.62 187 2.71 140 2.72 139 2.77 171 2.83  75 2.92
  60  0.955  0.126  0.828- 109 2.62 121 2.62 188 2.71 137 2.72 140 2.77 172 2.83  76 2.92
  61  0.205  0.626  0.828- 106 2.62 126 2.62 189 2.71 142 2.72 141 2.77 173 2.83  77 2.92
  62  0.455  0.626  0.828- 107 2.62 127 2.62 190 2.71 143 2.72 142 2.77 174 2.83  78 2.92
  63  0.705  0.626  0.828- 108 2.62 128 2.62 191 2.71 144 2.72 143 2.77 175 2.83  79 2.92
  64  0.955  0.626  0.828- 105 2.62 125 2.62 192 2.71 141 2.72 144 2.77 176 2.83  80 2.92
  65  0.192  0.012  0.170-   1 2.62  22 2.62 102 2.82  49 2.91 185 3.01 149 3.01 165 3.05 130 3.06

  66  0.442  0.011  0.170-  23 2.62   2 2.62 103 2.82  50 2.92 150 3.01 186 3.01 166 3.04 131 3.07

[...]

 128  0.817  0.739  0.920-  48 2.62  63 2.62  88 2.82   8 2.92 175 3.01 144 3.01 152 3.04 192 3.07

 129  0.056  0.180  0.234-   1 2.71  52 2.72  49 2.77  17 2.83 164 2.90  84 3.01 113 3.01 161 3.03
                           101 3.04  68 3.07
 130  0.306  0.180  0.234-   2 2.71  49 2.72  50 2.77  18 2.83 161 2.90  81 3.01 114 3.01 162 3.03
                           102 3.04  65 3.06
 131  0.556  0.180  0.234-   3 2.71  50 2.72  51 2.77  19 2.83 162 2.90  82 3.01 115 3.01 163 3.03
                           103 3.04  66 3.07
 132  0.806  0.180  0.234-   4 2.71  51 2.72  52 2.77  20 2.83 163 2.90  83 3.01 116 3.01 164 3.03
                           104 3.04  67 3.07
 133  0.056  0.680  0.234-   5 2.71  56 2.72  53 2.77  21 2.83 168 2.90  88 3.01 117 3.01 165 3.03
                            97 3.04  72 3.07
 134  0.306  0.680  0.234-   6 2.71  53 2.72  54 2.77  22 2.83 165 2.90  85 3.01 118 3.01 166 3.03
                            98 3.04  69 3.07
 135  0.556  0.680  0.234-   7 2.71  54 2.72  55 2.77  23 2.83 166 2.90  86 3.01 119 3.01 167 3.03
                            99 3.04  70 3.07
 136  0.806  0.680  0.234-   8 2.71  55 2.72  56 2.77  24 2.83 167 2.90  87 3.01 120 3.01 168 3.03
                           100 3.04  71 3.07
 137  0.056  0.180  0.734-   9 2.71  60 2.72  57 2.77  25 2.83 172 2.90  92 3.01 121 3.01 169 3.03
                           109 3.04  76 3.07
 138  0.306  0.180  0.734-  10 2.71  57 2.72  58 2.77  26 2.83 169 2.90  89 3.01 122 3.01 170 3.03
                           110 3.04  73 3.07
 139  0.556  0.180  0.734-  11 2.71  58 2.72  59 2.77  27 2.83 170 2.90  90 3.01 123 3.01 171 3.03
                           111 3.04  74 3.07
 140  0.806  0.180  0.734-  12 2.71  59 2.72  60 2.77  28 2.83 171 2.90  91 3.01 124 3.01 172 3.03
                           112 3.04  75 3.07
 141  0.056  0.680  0.734-  13 2.71  64 2.72  61 2.77  29 2.83 176 2.90  96 3.01 125 3.01 173 3.03
                           105 3.04  80 3.07
 142  0.306  0.680  0.734-  14 2.71  61 2.72  62 2.77  30 2.83 173 2.90  93 3.01 126 3.01 174 3.03
                           106 3.04  77 3.07
 143  0.556  0.680  0.734-  15 2.71  62 2.72  63 2.77  31 2.83 174 2.90  94 3.01 127 3.01 175 3.03
                           107 3.04  78 3.07
 144  0.806  0.680  0.734-  16 2.71  63 2.72  64 2.77  32 2.83 175 2.90  95 3.01 128 3.01 176 3.03
                           108 3.04  79 3.07
 145  0.069  0.430  0.016-  17 2.71  41 2.72  44 2.77   5 2.83 189 2.90  69 3.01 105 3.01 192 3.03
                           121 3.04  81 3.07
 146  0.319  0.430  0.016-  18 2.71  42 2.72  41 2.77   6 2.83 190 2.90  70 3.01 106 3.01 189 3.03
                           122 3.04  82 3.07
 147  0.569  0.430  0.016-  19 2.71  43 2.72  42 2.77   7 2.83 191 2.90  71 3.01 107 3.01 190 3.03
                           123 3.04  83 3.07
 148  0.819  0.430  0.016-  20 2.71  44 2.72  43 2.77   8 2.83 192 2.90  72 3.01 108 3.01 191 3.03
                           124 3.04  84 3.07
 149  0.069  0.930  0.016-  21 2.71  45 2.72  48 2.77   1 2.83 185 2.90  65 3.01 109 3.01 188 3.03
                           125 3.04  85 3.07
 150  0.319  0.930  0.016-  22 2.71  46 2.72  45 2.77   2 2.83 186 2.90  66 3.01 110 3.01 185 3.03
                           126 3.04  86 3.07
 151  0.569  0.930  0.016-  23 2.71  47 2.72  46 2.77   3 2.83 187 2.90  67 3.01 111 3.01 186 3.03
                           127 3.04  87 3.07
 152  0.819  0.930  0.016-  24 2.71  48 2.72  47 2.77   4 2.83 188 2.90  68 3.01 112 3.01 187 3.03
                           128 3.04  88 3.07
 153  0.069  0.430  0.516-  25 2.71  33 2.72  36 2.77  13 2.83 181 2.90  77 3.01  97 3.01 184 3.03
                           113 3.04  89 3.07
 154  0.319  0.430  0.516-  26 2.71  34 2.72  33 2.77  14 2.83 182 2.90  78 3.01  98 3.01 181 3.03
                           114 3.04  90 3.07
 155  0.569  0.430  0.516-  27 2.71  35 2.72  34 2.77  15 2.83 183 2.90  79 3.01  99 3.01 182 3.03
                           115 3.04  91 3.07
 156  0.819  0.430  0.516-  28 2.71  36 2.72  35 2.77  16 2.83 184 2.90  80 3.01 100 3.01 183 3.03
                           116 3.04  92 3.07
 157  0.069  0.930  0.516-  29 2.71  37 2.72  40 2.77   9 2.83 177 2.90  73 3.01 101 3.01 180 3.03
                           117 3.04  93 3.07
[...]
    -4.231441680  0.000000000 15.225942860    -0.000096233  0.000000000  0.065650634

  length of vectors
    17.674361988 13.775162100 15.802988156     0.058699562  0.072594427  0.065650704

 FORCES acting on ions
    electron-ion (+dipol)            ewald-force                    non-local-force                 convergence-correction
   0.455E+02 -.172E+02 -.116E+02   -.472E+02 0.177E+02 0.121E+02   0.175E+01 -.487E+00 -.480E+00   -.580E-06 -.267E-05 0.145E-05
   0.447E+02 -.171E+02 -.120E+02   -.464E+02 0.176E+02 0.125E+02   0.175E+01 -.489E+00 -.481E+00   -.330E-05 -.243E-05 0.638E-06
   0.449E+02 -.171E+02 -.121E+02   -.467E+02 0.176E+02 0.126E+02   0.175E+01 -.488E+00 -.482E+00   -.810E-06 -.170E-05 0.650E-06
   0.449E+02 -.171E+02 -.121E+02   -.467E+02 0.176E+02 0.126E+02   0.175E+01 -.488E+00 -.482E+00   -.122E-05 -.153E-05 0.734E-06
   0.449E+02 -.173E+02 -.121E+02   -.466E+02 0.177E+02 0.126E+02   0.175E+01 -.488E+00 -.482E+00   -.190E-05 0.680E-06 0.112E-05
   0.450E+02 -.172E+02 -.121E+02   -.467E+02 0.177E+02 0.126E+02   0.175E+01 -.488E+00 -.482E+00   -.232E-05 0.102E-05 0.244E-05
   0.449E+02 -.172E+02 -.121E+02   -.467E+02 0.176E+02 0.126E+02   0.175E+01 -.488E+00 -.482E+00   -.134E-05 0.859E-06 0.179E-05
   0.449E+02 -.172E+02 -.121E+02   -.467E+02 0.177E+02 0.126E+02   0.175E+01 -.488E+00 -.482E+00   -.216E-06 0.296E-06 0.928E-06
   0.449E+02 -.171E+02 -.121E+02   -.467E+02 0.176E+02 0.126E+02   0.175E+01 -.488E+00 -.482E+00   -.163E-05 -.237E-05 0.149E-05
   0.449E+02 -.171E+02 -.121E+02   -.467E+02 0.176E+02 0.126E+02   0.175E+01 -.487E+00 -.482E+00   -.193E-05 -.245E-05 0.551E-06
   0.449E+02 -.171E+02 -.121E+02   -.467E+02 0.176E+02 0.126E+02   0.175E+01 -.488E+00 -.482E+00   -.877E-06 -.304E-05 0.130E-06
   0.449E+02 -.171E+02 -.121E+02   -.467E+02 0.176E+02 0.126E+02   0.175E+01 -.488E+00 -.482E+00   -.107E-05 -.226E-05 0.170E-05
   0.449E+02 -.172E+02 -.121E+02   -.467E+02 0.176E+02 0.126E+02   0.175E+01 -.488E+00 -.482E+00   -.272E-05 0.835E-06 0.557E-07
   0.449E+02 -.172E+02 -.121E+02   -.467E+02 0.177E+02 0.126E+02   0.175E+01 -.488E+00 -.482E+00   -.260E-05 0.665E-06 0.451E-06
   0.449E+02 -.172E+02 -.121E+02   -.467E+02 0.176E+02 0.126E+02   0.175E+01 -.488E+00 -.482E+00   -.563E-06 0.964E-06 0.293E-06
   0.449E+02 -.172E+02 -.121E+02   -.467E+02 0.176E+02 0.126E+02   0.175E+01 -.488E+00 -.482E+00   -.197E-06 0.293E-06 0.998E-06
   -.449E+02 -.172E+02 0.121E+02   0.466E+02 0.177E+02 -.126E+02   -.175E+01 -.488E+00 0.482E+00   0.160E-05 -.170E-06 -.124E-05
   -.450E+02 -.173E+02 0.121E+02   0.467E+02 0.178E+02 -.126E+02   -.175E+01 -.488E+00 0.482E+00   0.374E-06 0.862E-06 -.643E-06
   -.449E+02 -.172E+02 0.121E+02   0.467E+02 0.177E+02 -.126E+02   -.175E+01 -.488E+00 0.482E+00   0.118E-05 0.472E-06 -.383E-06
   -.449E+02 -.172E+02 0.121E+02   0.467E+02 0.176E+02 -.126E+02   -.175E+01 -.488E+00 0.482E+00   0.205E-05 0.141E-07 -.231E-06
   -.453E+02 -.172E+02 0.121E+02   0.471E+02 0.177E+02 -.126E+02   -.175E+01 -.490E+00 0.481E+00   0.355E-05 -.112E-05 -.183E-06
   -.441E+02 -.174E+02 0.121E+02   0.459E+02 0.180E+02 -.126E+02   -.175E+01 -.487E+00 0.482E+00   -.326E-05 -.476E-07 -.182E-06
   -.449E+02 -.171E+02 0.121E+02   0.466E+02 0.176E+02 -.126E+02   -.175E+01 -.488E+00 0.482E+00   0.470E-06 -.173E-05 -.880E-07
   -.449E+02 -.171E+02 0.121E+02   0.467E+02 0.176E+02 -.126E+02   -.175E+01 -.488E+00 0.482E+00   0.235E-05 -.959E-06 -.810E-06
   -.449E+02 -.172E+02 0.121E+02   0.467E+02 0.176E+02 -.126E+02   -.175E+01 -.488E+00 0.482E+00   0.588E-06 0.224E-06 -.442E-06
   -.449E+02 -.172E+02 0.121E+02   0.467E+02 0.176E+02 -.126E+02   -.175E+01 -.488E+00 0.482E+00   0.333E-06 -.877E-06 -.764E-06
   -.449E+02 -.172E+02 0.121E+02   0.467E+02 0.176E+02 -.126E+02   -.175E+01 -.488E+00 0.482E+00   0.155E-05 -.176E-06 -.161E-06
   -.449E+02 -.172E+02 0.121E+02   0.467E+02 0.176E+02 -.126E+02   -.175E+01 -.488E+00 0.482E+00   0.361E-05 -.888E-06 0.698E-06
   -.449E+02 -.171E+02 0.121E+02   0.467E+02 0.176E+02 -.126E+02   -.175E+01 -.488E+00 0.482E+00   0.134E-05 -.181E-05 -.457E-06
   -.449E+02 -.171E+02 0.121E+02   0.467E+02 0.176E+02 -.126E+02   -.175E+01 -.488E+00 0.482E+00   0.450E-06 -.617E-06 -.675E-06
   -.449E+02 -.171E+02 0.121E+02   0.467E+02 0.176E+02 -.126E+02   -.175E+01 -.488E+00 0.482E+00   0.250E-05 -.645E-06 -.412E-06
   -.449E+02 -.171E+02 0.121E+02   0.467E+02 0.176E+02 -.126E+02   -.175E+01 -.488E+00 0.482E+00   0.244E-05 -.111E-05 -.196E-06
   -.449E+02 0.171E+02 0.121E+02   0.467E+02 -.176E+02 -.126E+02   -.175E+01 0.487E+00 0.482E+00   0.908E-06 0.164E-05 -.276E-05
   -.449E+02 0.171E+02 0.121E+02   0.467E+02 -.176E+02 -.126E+02   -.175E+01 0.487E+00 0.482E+00   0.927E-06 0.970E-06 -.257E-05
   -.449E+02 0.171E+02 0.121E+02   0.467E+02 -.176E+02 -.126E+02   -.175E+01 0.488E+00 0.482E+00   0.225E-05 0.137E-05 -.169E-05
   -.449E+02 0.171E+02 0.121E+02   0.467E+02 -.176E+02 -.126E+02   -.175E+01 0.487E+00 0.482E+00   0.190E-05 0.174E-05 -.972E-06
   -.450E+02 0.172E+02 0.122E+02   0.467E+02 -.177E+02 -.127E+02   -.175E+01 0.488E+00 0.481E+00   0.902E-06 -.185E-06 -.197E-05
   -.449E+02 0.172E+02 0.122E+02   0.466E+02 -.177E+02 -.126E+02   -.175E+01 0.488E+00 0.483E+00   0.149E-05 0.605E-06 -.294E-05
   -.449E+02 0.172E+02 0.121E+02   0.467E+02 -.176E+02 -.126E+02   -.175E+01 0.488E+00 0.482E+00   0.207E-05 0.126E-05 -.109E-05
   -.449E+02 0.172E+02 0.121E+02   0.467E+02 -.176E+02 -.126E+02   -.175E+01 0.488E+00 0.482E+00   0.186E-05 0.768E-06 -.925E-06
   -.449E+02 0.171E+02 0.122E+02   0.467E+02 -.176E+02 -.126E+02   -.175E+01 0.487E+00 0.482E+00   -.116E-06 0.482E-06 -.471E-08
   -.449E+02 0.171E+02 0.121E+02   0.467E+02 -.176E+02 -.126E+02   -.175E+01 0.487E+00 0.482E+00   0.173E-05 0.723E-06 -.415E-06
   -.449E+02 0.171E+02 0.121E+02   0.467E+02 -.176E+02 -.126E+02   -.175E+01 0.488E+00 0.482E+00   0.258E-05 0.863E-08 -.494E-06
   -.449E+02 0.171E+02 0.121E+02   0.467E+02 -.176E+02 -.126E+02   -.175E+01 0.488E+00 0.482E+00   0.161E-05 0.108E-05 -.418E-06
   -.449E+02 0.172E+02 0.120E+02   0.466E+02 -.177E+02 -.125E+02   -.175E+01 0.489E+00 0.483E+00   0.269E-06 0.189E-06 0.272E-06
   -.449E+02 0.172E+02 0.121E+02   0.467E+02 -.177E+02 -.126E+02   -.175E+01 0.488E+00 0.482E+00   0.114E-05 -.132E-06 -.406E-06
   -.449E+02 0.172E+02 0.121E+02   0.467E+02 -.176E+02 -.126E+02   -.175E+01 0.488E+00 0.482E+00   0.227E-05 -.583E-07 0.142E-06
   -.449E+02 0.172E+02 0.121E+02   0.467E+02 -.177E+02 -.126E+02   -.175E+01 0.487E+00 0.481E+00   0.201E-05 -.401E-06 -.842E-06
   0.450E+02 0.172E+02 -.126E+02   -.468E+02 -.177E+02 0.131E+02   0.175E+01 0.484E+00 -.487E+00   -.284E-05 -.136E-05 -.118E-05
   0.449E+02 0.172E+02 -.122E+02   -.466E+02 -.177E+02 0.126E+02   0.175E+01 0.488E+00 -.482E+00   -.831E-06 -.806E-06 0.120E-06
   0.449E+02 0.172E+02 -.121E+02   -.467E+02 -.176E+02 0.126E+02   0.175E+01 0.488E+00 -.482E+00   -.484E-06 -.148E-05 0.333E-06
   0.450E+02 0.172E+02 -.121E+02   -.467E+02 -.177E+02 0.126E+02   0.175E+01 0.488E+00 -.482E+00   -.166E-05 -.115E-05 -.329E-06
   0.449E+02 0.170E+02 -.121E+02   -.467E+02 -.175E+02 0.126E+02   0.175E+01 0.487E+00 -.481E+00   -.225E-05 0.267E-05 -.135E-05
   0.449E+02 0.171E+02 -.121E+02   -.467E+02 -.176E+02 0.126E+02   0.175E+01 0.487E+00 -.482E+00   -.173E-05 0.207E-05 -.795E-06
   0.449E+02 0.171E+02 -.121E+02   -.467E+02 -.176E+02 0.126E+02   0.175E+01 0.488E+00 -.482E+00   -.147E-05 0.142E-05 0.232E-06
   0.449E+02 0.171E+02 -.121E+02   -.467E+02 -.176E+02 0.126E+02   0.175E+01 0.487E+00 -.482E+00   -.224E-06 0.169E-05 0.767E-06
   0.449E+02 0.172E+02 -.121E+02   -.467E+02 -.177E+02 0.126E+02   0.175E+01 0.488E+00 -.482E+00   -.249E-05 -.125E-06 0.681E-06
   0.449E+02 0.172E+02 -.121E+02   -.467E+02 -.176E+02 0.126E+02   0.175E+01 0.488E+00 -.482E+00   -.113E-05 -.712E-06 0.114E-05
   0.449E+02 0.172E+02 -.121E+02   -.467E+02 -.176E+02 0.126E+02   0.175E+01 0.488E+00 -.482E+00   0.388E-06 0.231E-06 0.171E-05
   0.449E+02 0.172E+02 -.121E+02   -.467E+02 -.177E+02 0.126E+02   0.175E+01 0.488E+00 -.481E+00   -.159E-05 0.186E-07 0.573E-06
[...]
   -.615E+02 -.303E+02 0.289E+02   0.613E+02 0.304E+02 -.290E+02   0.169E+00 -.643E-01 0.107E+00   0.477E-05 -.296E-05 0.653E-06
   -.615E+02 -.303E+02 0.289E+02   0.613E+02 0.304E+02 -.290E+02   0.169E+00 -.643E-01 0.107E+00   0.244E-05 -.292E-05 0.765E-06
   -.615E+02 -.304E+02 0.289E+02   0.613E+02 0.305E+02 -.290E+02   0.169E+00 -.649E-01 0.108E+00   0.485E-06 0.461E-05 0.600E-06
   -.615E+02 -.304E+02 0.289E+02   0.613E+02 0.304E+02 -.290E+02   0.169E+00 -.645E-01 0.108E+00   0.250E-05 0.447E-05 -.103E-05
   -.615E+02 -.303E+02 0.289E+02   0.613E+02 0.304E+02 -.290E+02   0.169E+00 -.644E-01 0.107E+00   0.432E-05 0.513E-05 0.127E-05
   -.615E+02 -.303E+02 0.289E+02   0.613E+02 0.304E+02 -.290E+02   0.169E+00 -.645E-01 0.108E+00   0.358E-05 0.369E-05 0.149E-05
   -.616E+02 -.298E+02 0.293E+02   0.614E+02 0.299E+02 -.295E+02   0.168E+00 -.624E-01 0.105E+00   -.749E-06 -.115E-05 0.737E-05
   -.615E+02 -.303E+02 0.289E+02   0.613E+02 0.303E+02 -.290E+02   0.169E+00 -.643E-01 0.107E+00   0.726E-06 -.926E-06 0.247E-05
   -.615E+02 -.303E+02 0.289E+02   0.613E+02 0.304E+02 -.290E+02   0.169E+00 -.643E-01 0.108E+00   0.453E-05 -.717E-06 0.230E-05
   -.614E+02 -.302E+02 0.289E+02   0.612E+02 0.303E+02 -.290E+02   0.171E+00 -.638E-01 0.109E+00   0.600E-05 0.104E-05 0.224E-05
   -.615E+02 -.305E+02 0.288E+02   0.613E+02 0.305E+02 -.289E+02   0.169E+00 -.648E-01 0.107E+00   0.188E-05 0.351E-05 0.106E-05
   -.615E+02 -.304E+02 0.289E+02   0.613E+02 0.304E+02 -.290E+02   0.169E+00 -.645E-01 0.107E+00   0.206E-05 0.462E-05 0.288E-05
   -.615E+02 -.303E+02 0.289E+02   0.613E+02 0.304E+02 -.290E+02   0.169E+00 -.644E-01 0.107E+00   0.478E-05 0.442E-05 0.187E-05
   -.615E+02 -.304E+02 0.289E+02   0.613E+02 0.305E+02 -.290E+02   0.169E+00 -.646E-01 0.107E+00   0.309E-05 0.386E-05 0.115E-05
   -.560E-01 0.662E-01 -.250E-01   0.412E-12 0.909E-12 0.176E-11   0.560E-01 -.662E-01 0.250E-01   -.366E-04 -.481E-04 0.225E-04

 POSITION                                       TOTAL-FORCE (eV/Angst)
      1.08767      1.71003      1.19607        -0.015670      0.012078     -0.013184
      5.50625      1.71003      1.20255        -0.002889      0.000264     -0.002731
      9.92484      1.71003      1.20903        -0.003561      0.000432     -0.002489
     14.34342      1.71003      1.21550        -0.003099      0.000393     -0.002427
      1.08767      8.59761      1.19607        -0.003557      0.000161     -0.002575
      5.50625      8.59761      1.20255        -0.003665     -0.000023     -0.002607
      9.92484      8.59761      1.20903        -0.003558      0.000325     -0.002452
     14.34342      8.59761      1.21550        -0.003577      0.000346     -0.002457
     -1.02805      1.71003      8.80904        -0.003623      0.000395     -0.002429
      3.39053      1.71003      8.81552        -0.003839      0.000510     -0.002658
      7.80912      1.71003      8.82200        -0.003600      0.000388     -0.002424
     12.22770      1.71003      8.82847        -0.003566      0.000366     -0.002316
     -1.02805      8.59761      8.80904        -0.003551      0.000330     -0.002481
      3.39053      8.59761      8.81552        -0.003601      0.000349     -0.002388
      7.80912      8.59761      8.82200        -0.003595      0.000364     -0.002406
     12.22770      8.59761      8.82847        -0.003588      0.000367     -0.002440
      0.06377      5.15382      2.61365         0.003766      0.000091      0.002464
      4.48235      5.15382      2.62013         0.003561      0.000342      0.002577
      8.90094      5.15382      2.62660         0.003629      0.000360      0.002452
     13.31952      5.15382      2.63308         0.003641      0.000319      0.002389
      0.06377     12.04140      2.61365         0.005410      0.000342      0.002094
      4.48235     12.04140      2.62013        -0.012460      0.015432      0.004714
      8.90094     12.04140      2.62660         0.004107      0.000432      0.002481
     13.31952     12.04140      2.63308         0.003581      0.000427      0.002439
     -2.05195      5.15382     10.22662         0.003603      0.000344      0.002428
      2.36663      5.15382     10.23310         0.003589      0.000342      0.002451
      6.78522      5.15382     10.23958         0.003590      0.000363      0.002418
     11.20380      5.15382     10.24605         0.003610      0.000354      0.002439
     -2.05195     12.04140     10.22662         0.003663      0.000370      0.002421
      2.36663     12.04140     10.23310         0.003574      0.000422      0.002446
      6.78522     12.04140     10.23958         0.003615      0.000383      0.002505
     11.20380     12.04140     10.24605         0.003614      0.000380      0.002394
      1.21520      5.17755      6.42337         0.003618     -0.000709      0.002443
      5.63378      5.17755      6.42985         0.003588     -0.000386      0.002415
     10.05237      5.17755      6.43633         0.003604     -0.000399      0.002420
     14.47096      5.17755      6.44281         0.003591     -0.000437      0.002447
      1.21520     12.06513      6.42337         0.003844     -0.000187      0.002036
      5.63378     12.06513      6.42985         0.003593     -0.000309      0.002746
     10.05237     12.06513      6.43633         0.003589     -0.000352      0.002478
     14.47096     12.06513      6.44281         0.003627     -0.000371      0.002416
     -0.90052      5.17755     14.03635         0.003568     -0.000499      0.002464
      3.51806      5.17755     14.04282         0.003558     -0.000486      0.002444
      7.93665      5.17755     14.04930         0.003607     -0.000387      0.002411
     12.35523      5.17755     14.05578         0.003643     -0.000430      0.002463
     -0.90052     12.06513     14.03635         0.003137     -0.000071      0.003002
      3.51806     12.06513     14.04282         0.003573     -0.000357      0.002446
      7.93665     12.06513     14.04930         0.003581     -0.000364      0.002435
     12.35523     12.06513     14.05578         0.003359     -0.000361      0.002309
      2.23910      1.73376      5.00580        -0.004534      0.001889      0.001871
      6.65768      1.73376      5.01227        -0.003589     -0.000295     -0.002335
     11.07627      1.73376      5.01875        -0.003591     -0.000362     -0.002406
     15.49486      1.73376      5.02523        -0.003511     -0.000353     -0.002399
      2.23910      8.62134      5.00580        -0.003769     -0.000828     -0.002220
      6.65768      8.62134      5.01227        -0.003419     -0.000624     -0.002309
     11.07627      8.62134      5.01875        -0.003595     -0.000375     -0.002430
     15.49486      8.62134      5.02523        -0.003720     -0.000526     -0.002313
      0.12338      1.73376     12.61877        -0.003677     -0.000412     -0.002399
      4.54196      1.73376     12.62525        -0.003614     -0.000384     -0.002512
      8.96055      1.73376     12.63172        -0.003595     -0.000374     -0.002413
     13.37914      1.73376     12.63820        -0.003559     -0.000369     -0.001909
[...]
      5.57316      0.95913      7.37321         0.001312      0.002245     -0.000527
      9.99175      0.95913      7.37969         0.001270      0.002268     -0.000484
     14.41033      0.95913      7.38616         0.001276      0.002260     -0.000454
      1.15458      7.84671      7.36673         0.001339      0.002419     -0.000534
      5.57316      7.84671      7.37321         0.001304      0.002334     -0.000487
      9.99175      7.84671      7.37969         0.001286      0.002298     -0.000470
     14.41033      7.84671      7.38616         0.001292      0.002308     -0.000491
     -0.96114      0.95913     14.97970         0.002361      0.001926     -0.002730
      3.45744      0.95913     14.98618         0.001395      0.002153     -0.000517
      7.87603      0.95913     14.99266         0.001232      0.002254     -0.000503
     12.29461      0.95913     14.99913         0.000535      0.001842     -0.000966
     -0.96114      7.84671     14.97970         0.001277      0.002350     -0.000381
      3.45744      7.84671     14.98618         0.001241      0.002342     -0.000428
      7.87603      7.84671     14.99266         0.001282      0.002307     -0.000453
     12.29461      7.84671     14.99913         0.001329      0.002330     -0.000415
    total drift:                                0.000000      0.000004     -0.000003

  FREE ENERGIE OF THE ION-ELECTRON SYSTEM (eV)
  free  energy   TOTEN  =      -676.41999728 eV

  energy  without entropy=     -676.41233290  energy(sigma->0) =     -676.41616509