 vasp.5.4.4.18Apr17-6-g9f103f2a35 (build Jul 30 2020 14:31:59) complex

 executed on             LinuxIFC date 2020.11.04  04:57:33

 INCAR:
 POTCAR:    PAW_PBE Se 06Sep2000
 POTCAR:    PAW_PBE Ag 02Apr2005

 POTCAR:    PAW_PBE Se 06Sep2000
   VRHFIN =Se: s2p4

   TITEL  = PAW_PBE Se 06Sep2000
   POMASS =   78.960; ZVAL   =    6.000    mass and valenz
   ENMAX  =  211.555; ENMIN  =  158.666 eV

 POTCAR:    PAW_PBE Ag 02Apr2005
   VRHFIN =Ag : s1 d10

   TITEL  = PAW_PBE Ag 02Apr2005
   POMASS =  107.868; ZVAL   =   11.000    mass and valenz
   ENMAX  =  249.844; ENMIN  =  187.383 eV

  PAW_PBE Se 06Sep2000                  :
  PAW_PBE Ag 02Apr2005                  :

 POSCAR: # Compound: Se4Ag8. Old comment: Ag2Se p
  positions in direct lattice
 exchange correlation table for  LEXCH =       14
   RHO(1)=    0.500       N(1)  =     2000
   RHO(2)=  100.500       N(2)  =     4000

 ion  position               nearest neighbor table
   1  0.321  0.248  0.157-   6 2.62   5 2.62   9 2.71  12 2.72  12 2.77  10 2.83   8 2.92
   2  0.179  0.748  0.343-   5 2.62   6 2.62  10 2.71  11 2.72  11 2.77   9 2.83   7 2.92
   3  0.679  0.752  0.843-   8 2.62   7 2.62  11 2.71  10 2.72  10 2.77  12 2.83   6 2.92
   4  0.821  0.252  0.657-   7 2.62   8 2.62  12 2.71   9 2.72   9 2.77  11 2.83   5 2.92
   5  0.767  0.022  0.340-   2 2.62   1 2.62   7 2.82   4 2.92  10 3.01  12 3.01  11 3.04   9 3.07

   6  0.733  0.522  0.160-   1 2.62   2 2.62   8 2.82   3 2.92   9 3.01  11 3.01  12 3.04  10 3.07

[...]

   8  0.267  0.478  0.840-   3 2.62   4 2.62   6 2.82   1 2.92  11 3.01   9 3.01  10 3.04  12 3.07

   9  0.224  0.361  0.467-   1 2.71   4 2.72   4 2.77   2 2.83  11 2.90   6 3.01   8 3.01  11 3.03
                             7 3.04   5 3.07
  10  0.276  0.861  0.033-   2 2.71   3 2.72   3 2.77   1 2.83  12 2.90   5 3.01   7 3.01  12 3.03
                             8 3.04   6 3.07
  11  0.776  0.639  0.533-   3 2.71   2 2.72   2 2.77   4 2.83   9 2.90   8 3.01   6 3.01   9 3.03
                             5 3.04   7 3.07
  12  0.724  0.139  0.967-   4 2.71   1 2.72   1 2.77   3 2.83  10 2.90   7 3.01   5 3.01  10 3.03
                             6 3.04   8 3.07

  LATTYP: Found a simple monoclinic cell.
 ALAT       =     7.9598479568
 B/A-ratio  =     0.8652905291
 C/A-ratio  =     1.9138015458
 COS(beta)  =    -0.9607173428

  Lattice vectors:

 A1 = (  -2.3028649100,   0.0000000000,  -7.6194483200)
 A2 = (   0.0000000000,  -6.8875810500,   0.0000000000)
 A3 = (   0.1871440700,   0.0000000000,  15.2324197500)

Analysis of symmetry for initial positions (statically):
 Subroutine PRICEL returns:
 Original cell was already a primitive cell.

 Routine SETGRP: Setting up the symmetry group for a
 simple monoclinic supercell.

 Subroutine GETGRP returns: Found  4 space group operations
 (whereof  2 operations were pure point group operations)
 out of a pool of  4 trial point group operations.

The static configuration has the point symmetry S_2 .
 The point group associated with its full space group is C_2h.

Analysis of symmetry for dynamics (positions and initial velocities):
 Subroutine PRICEL returns:
 Original cell was already a primitive cell.

[...]

The dynamic configuration has the point symmetry S_2 .
 The point group associated with its full space group is C_2h.

 Subroutine INISYM returns: Found  4 space group operations
 (whereof  2 operations are pure point group operations),
 and found     1 'primitive' translations

 KPOINTS: # No comment

Automatic generation of k-mesh.
Space group operators:
 irot       det(A)        alpha          n_x          n_y          n_z        tau_x        tau_y        tau_z
    1     1.000000     0.000001     1.000000     0.000000     0.000000     0.000000     0.000000     0.000000
    2    -1.000000     0.000001     1.000000     0.000000     0.000000     0.000000     0.000000     0.000000
    3     1.000000   179.999999     0.000000     1.000000     0.000000    -0.500000    -0.500000    -0.500000
    4    -1.000000   179.999999     0.000000     1.000000     0.000000    -0.500000    -0.500000    -0.500000

 Subroutine IBZKPT returns following result:

 Found     42 irreducible k-points:

 Following reciprocal coordinates:
            Coordinates               Weight
  0.000000  0.000000  0.000000      1.000000
  0.166667  0.000000  0.000000      2.000000
  0.333333  0.000000  0.000000      2.000000
  0.500000  0.000000  0.000000      1.000000
  0.000000  0.250000  0.000000      2.000000
  0.166667  0.250000  0.000000      4.000000
  0.333333  0.250000  0.000000      4.000000
  0.500000  0.250000  0.000000      2.000000
  0.000000  0.500000  0.000000      1.000000
  0.166667  0.500000  0.000000      2.000000
  0.333333  0.500000  0.000000      2.000000
  0.500000  0.500000  0.000000      1.000000
 -0.000000  0.000000  0.250000      2.000000
  0.166667  0.000000  0.250000      2.000000
  0.333333  0.000000  0.250000      2.000000
  0.500000  0.000000  0.250000      2.000000
 -0.333333  0.000000  0.250000      2.000000
 -0.166667  0.000000  0.250000      2.000000
 -0.000000  0.250000  0.250000      4.000000
  0.166667  0.250000  0.250000      4.000000
  0.333333  0.250000  0.250000      4.000000
  0.500000  0.250000  0.250000      4.000000
 -0.333333  0.250000  0.250000      4.000000
 -0.166667  0.250000  0.250000      4.000000
 -0.000000  0.500000  0.250000      2.000000
  0.166667  0.500000  0.250000      2.000000
  0.333333  0.500000  0.250000      2.000000
  0.500000  0.500000  0.250000      2.000000
 -0.333333  0.500000  0.250000      2.000000
 -0.166667  0.500000  0.250000      2.000000
 -0.000000  0.000000  0.500000      1.000000
  0.166667  0.000000  0.500000      2.000000
  0.333333  0.000000  0.500000      2.000000
  0.500000  0.000000  0.500000      1.000000
 -0.000000  0.250000  0.500000      2.000000
  0.166667  0.250000  0.500000      4.000000
  0.333333  0.250000  0.500000      4.000000
  0.500000  0.250000  0.500000      2.000000
 -0.000000  0.500000  0.500000      1.000000
  0.166667  0.500000  0.500000      2.000000
  0.333333  0.500000  0.500000      2.000000
  0.500000  0.500000  0.500000      1.000000

 Following cartesian coordinates:
            Coordinates               Weight
  0.000000  0.000000  0.000000      1.000000
  0.037704  0.000000  0.010478      2.000000
  0.075408  0.000000  0.020957      2.000000
  0.113112  0.000000  0.031435      1.000000
  0.000000  0.036297  0.000000      2.000000
  0.037704  0.036297  0.010478      4.000000
  0.075408  0.036297  0.020957      4.000000
  0.113112  0.036297  0.031435      2.000000
  0.000000  0.072594  0.000000      1.000000
  0.037704  0.072594  0.010478      2.000000
  0.075408  0.072594  0.020957      2.000000
  0.113112  0.072594  0.031435      1.000000
 -0.000048  0.000000  0.032825      2.000000
  0.037656  0.000000  0.043304      2.000000
  0.075360  0.000000  0.053782      2.000000
  0.113064  0.000000  0.064260      2.000000
 -0.075456  0.000000  0.011869      2.000000
 -0.037752  0.000000  0.022347      2.000000
 -0.000048  0.036297  0.032825      4.000000
  0.037656  0.036297  0.043304      4.000000
  0.075360  0.036297  0.053782      4.000000
  0.113064  0.036297  0.064260      4.000000
 -0.075456  0.036297  0.011869      4.000000
 -0.037752  0.036297  0.022347      4.000000
 -0.000048  0.072594  0.032825      2.000000
  0.037656  0.072594  0.043304      2.000000
  0.075360  0.072594  0.053782      2.000000
  0.113064  0.072594  0.064260      2.000000
 -0.075456  0.072594  0.011869      2.000000
 -0.037752  0.072594  0.022347      2.000000
 -0.000096  0.000000  0.065651      1.000000
  0.037608  0.000000  0.076129      2.000000
  0.075312  0.000000  0.086607      2.000000
  0.113016  0.000000  0.097086      1.000000
 -0.000096  0.036297  0.065651      2.000000
  0.037608  0.036297  0.076129      4.000000
  0.075312  0.036297  0.086607      4.000000
  0.113016  0.036297  0.097086      2.000000
 -0.000096  0.072594  0.065651      1.000000
  0.037608  0.072594  0.076129      2.000000
  0.075312  0.072594  0.086607      2.000000
  0.113016  0.072594  0.097086      1.000000

 Subroutine IBZKPT_HF returns following result:

 Found     96 k-points in 1st BZ
 the following     96 k-points will be used (e.g. in the exchange kernel)
 Following reciprocal coordinates:   # in IRBZ
  0.000000  0.000000  0.000000    0.01041667   1 t-inv F
  0.166667  0.000000  0.000000    0.01041667   2 t-inv F
  0.333333  0.000000  0.000000    0.01041667   3 t-inv F
  0.500000  0.000000  0.000000    0.01041667   4 t-inv F
  0.000000  0.250000  0.000000    0.01041667   5 t-inv F
  0.166667  0.250000  0.000000    0.01041667   6 t-inv F
  0.333333  0.250000  0.000000    0.01041667   7 t-inv F
  0.500000  0.250000  0.000000    0.01041667   8 t-inv F
  0.000000  0.500000  0.000000    0.01041667   9 t-inv F
  0.166667  0.500000  0.000000    0.01041667  10 t-inv F
  0.333333  0.500000  0.000000    0.01041667  11 t-inv F
  0.500000  0.500000  0.000000    0.01041667  12 t-inv F
 -0.000000  0.000000  0.250000    0.01041667  13 t-inv F
  0.166667  0.000000  0.250000    0.01041667  14 t-inv F
  0.333333  0.000000  0.250000    0.01041667  15 t-inv F
  0.500000  0.000000  0.250000    0.01041667  16 t-inv F
 -0.333333  0.000000  0.250000    0.01041667  17 t-inv F
 -0.166667  0.000000  0.250000    0.01041667  18 t-inv F
 -0.000000  0.250000  0.250000    0.01041667  19 t-inv F
  0.166667  0.250000  0.250000    0.01041667  20 t-inv F
  0.333333  0.250000  0.250000    0.01041667  21 t-inv F
  0.500000  0.250000  0.250000    0.01041667  22 t-inv F
 -0.333333  0.250000  0.250000    0.01041667  23 t-inv F
 -0.166667  0.250000  0.250000    0.01041667  24 t-inv F
 -0.000000  0.500000  0.250000    0.01041667  25 t-inv F
  0.166667  0.500000  0.250000    0.01041667  26 t-inv F
  0.333333  0.500000  0.250000    0.01041667  27 t-inv F
  0.500000  0.500000  0.250000    0.01041667  28 t-inv F
 -0.333333  0.500000  0.250000    0.01041667  29 t-inv F
 -0.166667  0.500000  0.250000    0.01041667  30 t-inv F
 -0.000000  0.000000  0.500000    0.01041667  31 t-inv F
  0.166667  0.000000  0.500000    0.01041667  32 t-inv F
  0.333333  0.000000  0.500000    0.01041667  33 t-inv F
  0.500000  0.000000  0.500000    0.01041667  34 t-inv F
 -0.000000  0.250000  0.500000    0.01041667  35 t-inv F
  0.166667  0.250000  0.500000    0.01041667  36 t-inv F
  0.333333  0.250000  0.500000    0.01041667  37 t-inv F
  0.500000  0.250000  0.500000    0.01041667  38 t-inv F
 -0.000000  0.500000  0.500000    0.01041667  39 t-inv F
  0.166667  0.500000  0.500000    0.01041667  40 t-inv F
  0.333333  0.500000  0.500000    0.01041667  41 t-inv F
  0.500000  0.500000  0.500000    0.01041667  42 t-inv F
 -0.166667  0.000000  0.000000    0.01041667   2 t-inv F
 -0.333333  0.000000  0.000000    0.01041667   3 t-inv F
  0.000000 -0.250000  0.000000    0.01041667   5 t-inv F
 -0.166667 -0.250000  0.000000    0.01041667   6 t-inv F
 -0.166667  0.250000  0.000000    0.01041667   6 t-inv F
  0.166667 -0.250000  0.000000    0.01041667   6 t-inv F
 -0.333333 -0.250000  0.000000    0.01041667   7 t-inv F
 -0.333333  0.250000  0.000000    0.01041667   7 t-inv F
[...]
     56       5.9383      2.00000
     57       7.5355      0.00000
     58       7.5355      0.00000
     59       8.0974      0.00000
     60       8.0974      0.00000
[...]
     66      11.1642      0.00000
     67      11.7758      0.00000
     68      11.7758      0.00000
     69      12.3499      0.00000
     70      12.3499      0.00000
     71      13.9405      0.00000
     72      13.9405      0.00000
     73      14.5547      0.00000
     74      14.5547      0.00000
     75      14.8447      0.00000
     76      14.8447      0.00000
     77      16.2710      0.00000
     78      16.2710      0.00000
     79      16.8723      0.00000
     80      16.8723      0.00000

 soft charge-density along one line, spin component           1
         0         1         2         3         4         5         6         7         8         9
 total charge-density along one line

------------------------ aborting loop because EDIFF is reached ----------------------------------------

  FORCE on cell =-STRESS in cart. coord.  units (eV):
  Direction    XX          YY          ZZ          XY          YZ          ZX
  Alpha Z   411.25184   411.25184   411.25184
  Ewald   -2937.18770 -2701.86964 -2631.96798    -0.00000    -0.00000   208.73208
  Hartree   534.44975   730.61041   768.97061     0.00000    -0.00000   136.15652
  E(xc)    -548.51070  -548.58441  -548.69304     0.00000    -0.00000    -0.00543
  Local     365.84235   -70.26397  -181.94269     0.00000     0.00000  -344.36210
  n-local    78.66960    79.64566    80.63614    -0.12192    -0.43945     1.38395
  augment   719.14959   718.10862   717.95340    -0.00000     0.00000    -1.46460
  Kinetic  1376.33628  1381.10228  1383.79270    -0.44878    -0.49394    -0.44051
  Fock        0.00000     0.00000     0.00000     0.00000     0.00000     0.00000
  Total       0.00100     0.00080     0.00098     0.00000     0.00000    -0.00008
  in kB       0.00693     0.00551     0.00679     0.00000     0.00000    -0.00055

 VOLUME and BASIS-vectors are now :
  energy-cutoff  :      650.00
  volume of cell :      231.78
      direct lattice vectors                 reciprocal lattice vectors
     4.418585750  0.000000000  0.006476890     0.226224601  0.000000000  0.062870077
     0.000000000  6.887581050  0.000000000     0.000000000  0.145188854  0.000000000
    -2.115720840  0.000000000  7.612971430    -0.000192465  0.000000000  0.131301267

  length of vectors
     4.418590497  6.887581050  7.901494078     0.234798247  0.145188854  0.131301408

 FORCES acting on ions
    electron-ion (+dipol)            ewald-force                    non-local-force                 convergence-correction
   0.449E+02 -.171E+02 -.121E+02   -.467E+02 0.176E+02 0.126E+02   0.176E+01 -.487E+00 -.489E+00   0.291E-05 -.601E-05 -.587E-05
   -.449E+02 -.171E+02 0.121E+02   0.467E+02 0.176E+02 -.126E+02   -.176E+01 -.487E+00 0.489E+00   -.292E-05 -.604E-05 0.586E-05
   -.449E+02 0.171E+02 0.121E+02   0.467E+02 -.176E+02 -.126E+02   -.176E+01 0.487E+00 0.489E+00   -.292E-05 0.604E-05 0.586E-05
   0.449E+02 0.171E+02 -.121E+02   -.467E+02 -.176E+02 0.126E+02   0.176E+01 0.487E+00 -.489E+00   0.291E-05 0.601E-05 -.587E-05
   0.331E+02 -.111E+02 -.951E+01   -.325E+02 0.110E+02 0.893E+01   -.620E+00 0.653E-01 0.583E+00   0.224E-04 -.877E-05 -.201E-04
   -.331E+02 -.111E+02 0.951E+01   0.325E+02 0.110E+02 -.893E+01   0.620E+00 0.653E-01 -.583E+00   -.224E-04 -.878E-05 0.202E-04
   -.331E+02 0.111E+02 0.951E+01   0.325E+02 -.110E+02 -.893E+01   0.620E+00 -.653E-01 -.583E+00   -.224E-04 0.878E-05 0.202E-04
   0.331E+02 0.111E+02 -.951E+01   -.325E+02 -.110E+02 0.893E+01   -.620E+00 -.653E-01 0.583E+00   0.224E-04 0.877E-05 -.201E-04
   -.615E+02 0.303E+02 0.289E+02   0.613E+02 -.304E+02 -.290E+02   0.168E+00 0.610E-01 0.113E+00   -.574E-04 0.305E-04 0.261E-04
   0.615E+02 0.303E+02 -.289E+02   -.613E+02 -.304E+02 0.290E+02   -.168E+00 0.610E-01 -.113E+00   0.574E-04 0.305E-04 -.261E-04
   0.615E+02 -.303E+02 -.289E+02   -.613E+02 0.304E+02 0.290E+02   -.168E+00 -.610E-01 -.113E+00   0.574E-04 -.305E-04 -.261E-04
   -.615E+02 -.303E+02 0.289E+02   0.613E+02 0.304E+02 -.290E+02   0.168E+00 -.610E-01 0.113E+00   -.574E-04 -.305E-04 0.261E-04
   -.103E-03 -.104E-04 0.179E-02   -.142E-13 -.711E-14 0.355E-14   0.111E-15 0.139E-16 -.278E-16   0.221E-07 0.198E-09 -.254E-07

 POSITION                                       TOTAL-FORCE (eV/Angst)
      1.08767      1.71003      1.19607        -0.000082      0.000048      0.000028
      0.06377      5.15382      2.61365         0.000082      0.000048     -0.000028
      1.21520      5.17755      6.42337         0.000082     -0.000048     -0.000028
      2.23910      1.73376      5.00580        -0.000082     -0.000048      0.000028
      2.67067      0.15459      2.59390         0.000037      0.000082     -0.000024
      2.89935      3.59838      1.22230        -0.000037      0.000082      0.000024
     -0.36780      6.73299      5.02555        -0.000037     -0.000082      0.000024
     -0.59649      3.28920      6.39715         0.000037     -0.000082     -0.000024
      0.00314      2.48466      3.55701        -0.000000      0.000011      0.000014
      1.14829      5.92845      0.25272         0.000000      0.000011     -0.000014
      2.29972      4.40292      4.06244         0.000000     -0.000011     -0.000014
      1.15458      0.95913      7.36673        -0.000000     -0.000011      0.000014
    total drift:                               -0.000103     -0.000010      0.001791

  FREE ENERGIE OF THE ION-ELECTRON SYSTEM (eV)
  free  energy   TOTEN  =       -42.27008645 eV

  energy  without entropy=      -42.26944790  energy(sigma->0) =      -42.26976717

 Linear response reoptimize wavefunctions
 Linear response G [H, r] |phi>, progress :
  Direction:   1

----------------------------------------- Iteration    1(   1)  ---------------------------------------

  free energy    TOTEN  =      -513.25336167 eV

[...]

 Linear response G [H, r] |phi>, progress :
  Direction:   2

[...]

 Linear response G [H, r] |phi>, progress :
  Direction:   3

[...]

  free energy    TOTEN  =      -467.27694012 eV

[...]

 Linear response to external field (no local field effect), progress :
  Direction:   1
  LATTYP: Found a simple monoclinic cell.
 ALAT       =     7.9598479568
 B/A-ratio  =     0.8652905291
 C/A-ratio  =     1.9138015458
 COS(beta)  =    -0.9607173428

[...]

 Free energy of the ion-electron system (eV)
  -Hartree energ DENC   =         0.00000000
  -V(xc)+E(xc)   XCENC  =         0.00000000
  PAW double counting   =         0.00000000        0.00000000
  entropy T*S    EENTRO =         0.00000000
  eigenvalues    EBANDS =       -11.93488906
  free energy    TOTEN  =       -11.93488906 eV

  energy without entropy =      -11.93488906

[...]

 change of polarisation eV/A/(eV/A) component  1 :    28.830    -0.901     3.359
 dielectric tensor                  component  1 :    23.507    -0.703     2.622

[...]

The dynamic configuration has the point symmetry C_1 .
 The point group associated with its full space group is C_2 .

[...]

 Linear response to external field (no local field effect), progress :
  Direction:   3
  LATTYP: Found a simple monoclinic cell.
 ALAT       =     7.9598479568
 B/A-ratio  =     0.8652905291
 C/A-ratio  =     1.9138015458
 COS(beta)  =    -0.9607173428

[...]

 HEAD OF MICROSCOPIC STATIC DIELECTRIC TENSOR (INDEPENDENT PARTICLE, excluding Hartree and local field effects)
          23.507357     0.000000     2.622442
           0.000000    22.972858     0.000000
           2.622445     0.000000    43.408183

 Linear response to external field, progress :
  Direction:   1
  LATTYP: Found a simple monoclinic cell.
 ALAT       =     7.9598479568
 B/A-ratio  =     0.8652905291
 C/A-ratio  =     1.9138015458
 COS(beta)  =    -0.9607173428

[...]

 PIEZOELECTRIC TENSOR FIELD DIRECTION 1  (e Angst)
     0.00435  0.00000  0.00007           (  0.00016  0.00000 -0.00062)
     0.00000  0.00136  0.00000           (  0.00000  0.00010  0.00000)
     0.00008  0.00000 -0.00989           ( -0.00062  0.00000 -0.00001)

 PIEZOELECTRIC TENSOR FIELD DIRECTION 1  (C/m^2)
     0.00030  0.00000  0.00000
     0.00000  0.00009  0.00000
     0.00001  0.00000 -0.00068

      POSITION         DIRECTION 1           BORN EFFECTIVE CHARGE    (rigid.aug.   ionic)
      1.08767      1.71003      1.19607    -2.90775 -0.30189  0.09629 (  1.12503  6.00000)
      0.06377      5.15382      2.61365    -2.90650  0.30217  0.09846 (  1.12503  6.00000)
      1.21520      5.17755      6.42337    -2.90650 -0.30217  0.09846 (  1.12503  6.00000)
      2.23910      1.73376      5.00580    -2.90775  0.30189  0.09629 (  1.12503  6.00000)
      2.67067      0.15459      2.59390     1.27668 -0.30809  0.05421 ( -5.28579 11.00000)
      2.89935      3.59838      1.22230     1.27778  0.30835  0.05406 ( -5.28579 11.00000)
     -0.36780      6.73299      5.02555     1.27778 -0.30835  0.05406 ( -5.28579 11.00000)
     -0.59649      3.28920      6.39715     1.27668  0.30809  0.05421 ( -5.28579 11.00000)
      0.00314      2.48466      3.55701     1.51597 -0.07711 -0.14281 ( -5.29190 11.00000)
      1.14829      5.92845      0.25272     1.51577  0.07631 -0.14339 ( -5.29190 11.00000)
      2.29972      4.40292      4.06244     1.51577 -0.07631 -0.14339 ( -5.29190 11.00000)
      1.15458      0.95913      7.36673     1.51597  0.07711 -0.14281 ( -5.29190 11.00000)
    total drift (improves with k-points):  -0.45612  0.00000  0.03364

[...]

The dynamic configuration has the point symmetry C_1 .
 The point group associated with its full space group is C_2 .

[...]

 Linear response to external field, progress :
  Direction:   3
  LATTYP: Found a simple monoclinic cell.
 ALAT       =     7.9598479568
 B/A-ratio  =     0.8652905291
 C/A-ratio  =     1.9138015458
 COS(beta)  =    -0.9607173428

[...]

----------------------------------------- Iteration    3(  13)  ---------------------------------------

 Broyden mixing:
  rms(total) = 0.90458E-06    rms(broyden)= 0.90458E-06
  rms(prec ) = 0.12381E-05
  weight for this iteration     100.00

 eigenvalues of (default mixing * dielectric matrix)
  average eigenvalue GAMMA=   1.6480
  2.8241  2.5601  2.3849  2.1378  1.7471  1.6488  1.0314  1.0314  1.0026  0.8933
  0.8669

 Free energy of the ion-electron system (eV)
  -Hartree energ DENC   =        -0.51472479
  -V(xc)+E(xc)   XCENC  =         0.02028045
  PAW double counting   =         1.47988470       -1.51971831
  entropy T*S    EENTRO =         0.00000000
  eigenvalues    EBANDS =       -26.39648627
  free energy    TOTEN  =       -26.93076422 eV

  energy without entropy =      -26.93076422

------------------------ aborting loop because EDIFF is reached ----------------------------------------

 change of polarisation eV/A/(eV/A) component  3 :     3.785    -0.322    53.307
 dielectric tensor                  component  3 :     2.955    -0.251    42.617

 PIEZOELECTRIC TENSOR FIELD DIRECTION 3  (e Angst)
     0.00113  0.00000 -0.00869           ( -0.00003  0.00000 -0.00006)
     0.00000 -0.00075  0.00000           (  0.00000  0.00004  0.00000)
    -0.00869  0.00000  0.00297           ( -0.00006  0.00000  0.00006)

 PIEZOELECTRIC TENSOR FIELD DIRECTION 3  (C/m^2)
     0.00008  0.00000 -0.00060
     0.00000 -0.00005  0.00000
    -0.00060  0.00000  0.00021

      POSITION         DIRECTION 3           BORN EFFECTIVE CHARGE    (rigid.aug.   ionic)
      1.08767      1.71003      1.19607     0.07997  0.45895 -2.76248 (  1.12503  6.00000)
      0.06377      5.15382      2.61365     0.08007 -0.45838 -2.76262 (  1.12503  6.00000)
      1.21520      5.17755      6.42337     0.08007  0.45838 -2.76262 (  1.12503  6.00000)
      2.23910      1.73376      5.00580     0.07997 -0.45895 -2.76248 (  1.12503  6.00000)
      2.67067      0.15459      2.59390     0.03844 -0.08860  1.17706 ( -5.28579 11.00000)
      2.89935      3.59838      1.22230     0.03835  0.08916  1.17535 ( -5.28579 11.00000)
     -0.36780      6.73299      5.02555     0.03835 -0.08916  1.17535 ( -5.28579 11.00000)
     -0.59649      3.28920      6.39715     0.03844  0.08860  1.17706 ( -5.28579 11.00000)
      0.00314      2.48466      3.55701    -0.11546  0.02243  1.56768 ( -5.29190 11.00000)
      1.14829      5.92845      0.25272    -0.11497 -0.02282  1.56696 ( -5.29190 11.00000)
      2.29972      4.40292      4.06244    -0.11497  0.02282  1.56696 ( -5.29190 11.00000)
      1.15458      0.95913      7.36673    -0.11546 -0.02243  1.56768 ( -5.29190 11.00000)
    total drift (improves with k-points):   0.01280  0.00000 -0.07611

[...]

 MACROSCOPIC STATIC DIELECTRIC TENSOR (including local field effects in DFT)
          22.625516     0.000000     2.954890
           0.000000    22.411710     0.000000
           2.955005     0.000000    42.617117

  LATTYP: Found a simple monoclinic cell.
 ALAT       =     7.9598479568
 B/A-ratio  =     0.8652905291
 C/A-ratio  =     1.9138015458
 COS(beta)  =    -0.9607173428

  Lattice vectors:

 A1 = (  -2.3028649100,   0.0000000000,  -7.6194483200)
 A2 = (   0.0000000000,  -6.8875810500,   0.0000000000)
 A3 = (   0.1871440700,   0.0000000000,  15.2324197500)

Analysis of symmetry for initial positions (statically):
 Subroutine PRICEL returns:
 Original cell was already a primitive cell.

[...]

The static configuration has the point symmetry S_2 .
 The point group associated with its full space group is C_2h.

Analysis of symmetry for dynamics (positions and initial velocities):
 Subroutine PRICEL returns:
 Original cell was already a primitive cell.

 Routine SETGRP: Setting up the symmetry group for a
 simple monoclinic supercell.

 Subroutine GETGRP returns: Found  4 space group operations
 (whereof  2 operations were pure point group operations)
 out of a pool of  4 trial point group operations.

The dynamic configuration has the point symmetry S_2 .
 The point group associated with its full space group is C_2h.

 Subroutine INISYM returns: Found  4 space group operations
 (whereof  2 operations are pure point group operations),
 and found     1 'primitive' translations

 MACROSCOPIC STATIC DIELECTRIC TENSOR (including local field effects in DFT)
          22.625516     0.000000     2.954890
           0.000000    22.411710     0.000000
           2.955005     0.000000    42.617117

 PIEZOELECTRIC TENSOR  for field in x, y, z        (e  Angst)
          XX          YY          ZZ          XY          YZ          ZX
  x     0.00435     0.00136    -0.00989     0.00000     0.00000     0.00007
  y    -0.00035    -0.00614     0.00914     0.00000     0.00000     0.00293
  z     0.00113    -0.00075     0.00297     0.00000     0.00000    -0.00869

 PIEZOELECTRIC TENSOR  for field in x, y, z        (C/m^2)
          XX          YY          ZZ          XY          YZ          ZX
  x     0.00000     0.00000     0.00000     0.00000     0.00000     0.00000
  y     0.00000     0.00000     0.00000     0.00000     0.00000     0.00000
  z     0.00000     0.00000     0.00000     0.00000     0.00000     0.00000

 BORN EFFECTIVE CHARGES (in e, cummulative output)
 ion    1
    1    -2.86974    -0.30189     0.09349
    2    -0.08959    -2.73671    -0.30151
    3     0.07891     0.45895    -2.75614
 ion    2
    1    -2.86849     0.30217     0.09566
    2     0.08959    -2.73671     0.30151
    3     0.07901    -0.45838    -2.75627
 ion    3
    1    -2.86849    -0.30217     0.09566
    2    -0.08926    -2.73610    -0.30334
    3     0.07901     0.45838    -2.75627
 ion    4
    1    -2.86974     0.30189     0.09349
    2     0.08926    -2.73610     0.30334
    3     0.07891    -0.45895    -2.75614
 ion    5
    1     1.31469    -0.30809     0.05141
    2    -0.64446     1.37459     0.09466
    3     0.03737    -0.08860     1.18340
 ion    6
    1     1.31579     0.30835     0.05125
    2     0.64446     1.37459    -0.09466
    3     0.03728     0.08916     1.18169
 ion    7
    1     1.31579    -0.30835     0.05125
    2    -0.64492     1.37420     0.09440
    3     0.03728    -0.08916     1.18169
 ion    8
    1     1.31469     0.30809     0.05141
    2     0.64492     1.37420    -0.09440
    3     0.03737     0.08860     1.18340
 ion    9
    1     1.55398    -0.07711    -0.14561
    2    -0.02899     1.36299    -0.05235
    3    -0.11653     0.02243     1.57402
 ion   10
    1     1.55378     0.07631    -0.14619
    2     0.02899     1.36299     0.05235
    3    -0.11603    -0.02282     1.57330
 ion   11
    1     1.55378    -0.07631    -0.14619
    2    -0.02870     1.36103    -0.05397
    3    -0.11603     0.02282     1.57330
 ion   12
    1     1.55398     0.07711    -0.14561
    2     0.02870     1.36103     0.05397
    3    -0.11653    -0.02243     1.57402